 O Pt                                   
   1.0000000000000000     
     8.4637688330671441    0.0000000000000000    0.0000000000000005
    -4.2318844165335747    7.3298388211951195    0.0000000000000005
     0.0000000000000000    0.0000000000000000   34.5531915698098757
  O               Pt            
     1    54
Selective dynamics
Direct
  0.1111713137278448  0.2222575983647031  0.6977523621829117   T   T   T
  0.5555555555555571  0.4444444444444429  0.6000000000000014   F   F   F
  0.3333333333333357  0.0000000000000000  0.4666666666666686   F   F   F
  0.4444444444444429  0.8888888888888857  0.3333333333333357   F   F   F
  0.5555555555555571  0.7777777777777786  0.3999999999999986   F   F   F
  0.3351015491149034  0.9981339460480922  0.6660430519637182   T   T   T
  0.4444444444444429  0.8888888888888857  0.5333333333333314   F   F   F
  0.5555555555555571  0.7777777777777786  0.6000000000000014   F   F   F
  0.6666666666666643  0.3333333333333357  0.4666666666666686   F   F   F
  0.7777777777777786  0.2222222222222214  0.3333333333333357   F   F   F
  0.8888888888888857  0.1111111111111143  0.3999999999999986   F   F   F
  0.6672918896784225  0.3345942149677394  0.6669321814513967   T   T   T
  0.4444444444444429  0.5555555555555571  0.5333333333333314   F   F   F
  0.7777777777777786  0.2222222222222214  0.5333333333333314   F   F   F
  0.6666666666666643  0.6666666666666643  0.4666666666666686   F   F   F
  0.7777777777777786  0.5555555555555571  0.3333333333333357   F   F   F
  0.8888888888888857  0.4444444444444429  0.3999999999999986   F   F   F
  0.6673813178768678  0.6660957885067315  0.6669384840161864   T   T   T
  0.7777777777777786  0.5555555555555571  0.5333333333333314   F   F   F
  0.8888888888888857  0.4444444444444429  0.6000000000000014   F   F   F
  0.6666666666666643  0.0000000000000000  0.4666666666666686   F   F   F
  0.7777777777777786  0.8888888888888857  0.3333333333333357   F   F   F
  0.8888888888888857  0.7777777777777786  0.3999999999999986   F   F   F
  0.6630651200456552  0.9982173832346429  0.6660247502950096   T   T   T
  0.7777777777777786  0.8888888888888857  0.5333333333333314   F   F   F
  0.8888888888888857  0.1111111111111143  0.6000000000000014   F   F   F
  0.8888888888888857  0.7777777777777786  0.6000000000000014   F   F   F
  0.0000000000000000  0.3333333333333357  0.4666666666666686   F   F   F
  0.4444444444444429  0.5555555555555571  0.3333333333333357   F   F   F
  0.1111111111111143  0.2222222222222214  0.3333333333333357   F   F   F
  0.2222222222222214  0.1111111111111143  0.3999999999999986   F   F   F
  0.9905759584518411  0.3426310874389467  0.6675154139699263   T   T   T
  0.1111111111111143  0.2222222222222214  0.5333333333333314   F   F   F
  0.2222222222222214  0.1111111111111143  0.6000000000000014   F   F   F
  0.0000000000000000  0.6666666666666643  0.4666666666666686   F   F   F
  0.1111111111111143  0.5555555555555571  0.3333333333333357   F   F   F
  0.2222222222222214  0.4444444444444429  0.3999999999999986   F   F   F
  0.9987875797175132  0.6660520855185501  0.6669505069741553   T   T   T
  0.1111111111111143  0.5555555555555571  0.5333333333333314   F   F   F
  0.2222222222222214  0.4444444444444429  0.6000000000000014   F   F   F
  0.5555555555555571  0.4444444444444429  0.3999999999999986   F   F   F
  0.0000000000000000  0.0000000000000000  0.4666666666666686   F   F   F
  0.2222222222222214  0.7777777777777786  0.3999999999999986   F   F   F
  0.9907324966535462  0.9813048930280505  0.6675111270892450   T   T   T
  0.1111111111111143  0.8888888888888857  0.5333333333333314   F   F   F
  0.2222222222222214  0.7777777777777786  0.6000000000000014   F   F   F
  0.3333333333333357  0.3333333333333357  0.4666666666666686   F   F   F
  0.4444444444444429  0.2222222222222214  0.3333333333333357   F   F   F
  0.5555555555555571  0.1111111111111143  0.3999999999999986   F   F   F
  0.3520458191624479  0.3427766363604030  0.6675074586100547   T   T   T
  0.4444444444444429  0.2222222222222214  0.5333333333333314   F   F   F
  0.5555555555555571  0.1111111111111143  0.6000000000000014   F   F   F
  0.3333333333333357  0.6666666666666643  0.4666666666666686   F   F   F
  0.1111111111111143  0.8888888888888857  0.3333333333333357   F   F   F
  0.3351290974287523  0.6702462865579862  0.6660492940297201   T   T   T

  0.00000000E+00  0.00000000E+00  0.00000000E+00
  0.00000000E+00  0.00000000E+00  0.00000000E+00
  0.00000000E+00  0.00000000E+00  0.00000000E+00
  0.00000000E+00  0.00000000E+00  0.00000000E+00
  0.00000000E+00  0.00000000E+00  0.00000000E+00
  0.00000000E+00  0.00000000E+00  0.00000000E+00
  0.00000000E+00  0.00000000E+00  0.00000000E+00
  0.00000000E+00  0.00000000E+00  0.00000000E+00
  0.00000000E+00  0.00000000E+00  0.00000000E+00
  0.00000000E+00  0.00000000E+00  0.00000000E+00
  0.00000000E+00  0.00000000E+00  0.00000000E+00
  0.00000000E+00  0.00000000E+00  0.00000000E+00
  0.00000000E+00  0.00000000E+00  0.00000000E+00
  0.00000000E+00  0.00000000E+00  0.00000000E+00
  0.00000000E+00  0.00000000E+00  0.00000000E+00
  0.00000000E+00  0.00000000E+00  0.00000000E+00
  0.00000000E+00  0.00000000E+00  0.00000000E+00
  0.00000000E+00  0.00000000E+00  0.00000000E+00
  0.00000000E+00  0.00000000E+00  0.00000000E+00
  0.00000000E+00  0.00000000E+00  0.00000000E+00
  0.00000000E+00  0.00000000E+00  0.00000000E+00
  0.00000000E+00  0.00000000E+00  0.00000000E+00
  0.00000000E+00  0.00000000E+00  0.00000000E+00
  0.00000000E+00  0.00000000E+00  0.00000000E+00
  0.00000000E+00  0.00000000E+00  0.00000000E+00
  0.00000000E+00  0.00000000E+00  0.00000000E+00
  0.00000000E+00  0.00000000E+00  0.00000000E+00
  0.00000000E+00  0.00000000E+00  0.00000000E+00
  0.00000000E+00  0.00000000E+00  0.00000000E+00
  0.00000000E+00  0.00000000E+00  0.00000000E+00
  0.00000000E+00  0.00000000E+00  0.00000000E+00
  0.00000000E+00  0.00000000E+00  0.00000000E+00
  0.00000000E+00  0.00000000E+00  0.00000000E+00
  0.00000000E+00  0.00000000E+00  0.00000000E+00
  0.00000000E+00  0.00000000E+00  0.00000000E+00
  0.00000000E+00  0.00000000E+00  0.00000000E+00
  0.00000000E+00  0.00000000E+00  0.00000000E+00
  0.00000000E+00  0.00000000E+00  0.00000000E+00
  0.00000000E+00  0.00000000E+00  0.00000000E+00
  0.00000000E+00  0.00000000E+00  0.00000000E+00
  0.00000000E+00  0.00000000E+00  0.00000000E+00
  0.00000000E+00  0.00000000E+00  0.00000000E+00
  0.00000000E+00  0.00000000E+00  0.00000000E+00
  0.00000000E+00  0.00000000E+00  0.00000000E+00
  0.00000000E+00  0.00000000E+00  0.00000000E+00
  0.00000000E+00  0.00000000E+00  0.00000000E+00
  0.00000000E+00  0.00000000E+00  0.00000000E+00
  0.00000000E+00  0.00000000E+00  0.00000000E+00
  0.00000000E+00  0.00000000E+00  0.00000000E+00
  0.00000000E+00  0.00000000E+00  0.00000000E+00
  0.00000000E+00  0.00000000E+00  0.00000000E+00
  0.00000000E+00  0.00000000E+00  0.00000000E+00
  0.00000000E+00  0.00000000E+00  0.00000000E+00
  0.00000000E+00  0.00000000E+00  0.00000000E+00
  0.00000000E+00  0.00000000E+00  0.00000000E+00
