Ni Sb                                   
   1.0000000000000000     
     8.4664871974002001    0.0000000000000000    0.0000000000000005
    -4.2332435987000991    7.3321929937642887    0.0000000000000005
     0.0000000000000000    0.0000000000000000   31.1078603211553322
  Ni              Sb            
    36    12
Selective dynamics
Direct
  0.3333333333333357  0.1666666666666643  0.3661772319519017   F   F   F
  0.1666666666666643  0.8333333333333357  0.3383994541741231   F   F   F
  0.8333333333333357  0.6666666666666643  0.4495105652852303   F   F   F
  0.5000000000000000  0.5000000000000000  0.3939550097296802   F   F   F
  0.8333491392749169  0.6666694434298279  0.6142535879122919   T   T   T
  0.8333333333333357  0.1666666666666643  0.3661772319519017   F   F   F
  0.5000000000000000  0.0000000000000000  0.4772883430630088   F   F   F
  0.6666879875458823  0.3333389684672641  0.5922275571108410   T   T   T
  0.6666666666666643  0.3333333333333357  0.5050661208407874   F   F   F
  0.8333281015080155  0.1666682596496309  0.6142532241024004   T   T   T
  0.5000000000000000  0.0000000000000000  0.3939550097296802   F   F   F
  0.8333333333333357  0.1666666666666643  0.4495105652852303   F   F   F
  0.5000000000000000  0.0000000000000000  0.5606216763963445   F   F   F
  0.6666666666666643  0.3333333333333357  0.3383994541741231   F   F   F
  0.6666666666666643  0.8333333333333357  0.5050661208407874   F   F   F
  0.6666863691609880  0.8333472616769885  0.5922124107349526   T   T   T
  0.0000000000000000  0.5000000000000000  0.5606216763963445   F   F   F
  0.5000000000000000  0.5000000000000000  0.4772883430630088   F   F   F
  0.3333333333333357  0.6666666666666643  0.4495105652852303   F   F   F
  0.3333259382698068  0.6666786469000162  0.6142533311475007   T   T   T
  0.0000000000000000  0.0000000000000000  0.4772883430630088   F   F   F
  0.1666388187590958  0.3333153318371484  0.5922256979039880   T   T   T
  0.1666666666666643  0.3333333333333357  0.5050661208407874   F   F   F
  0.3333331996111102  0.1666507700043160  0.6142523027351910   T   T   T
  0.0000000000000000  0.0000000000000000  0.3939550097296802   F   F   F
  0.3333333333333357  0.1666666666666643  0.4495105652852303   F   F   F
  0.0000000000000000  0.0000000000000000  0.5606216763963445   F   F   F
  0.1666666666666643  0.3333333333333357  0.3383994541741231   F   F   F
  0.6666666666666643  0.8333333333333357  0.3383994541741231   F   F   F
  0.5000000000000000  0.5000000000000000  0.5606216763963445   F   F   F
  0.3333333333333357  0.6666666666666643  0.3661772319519017   F   F   F
  0.0000000000000000  0.5000000000000000  0.4772883430630088   F   F   F
  0.1666461460516745  0.8333288819200836  0.5922268137793902   T   T   T
  0.1666666666666643  0.8333333333333357  0.5050661208407874   F   F   F
  0.0000000000000000  0.5000000000000000  0.3939550097296802   F   F   F
  0.8333333333333357  0.6666666666666643  0.3661772319519017   F   F   F
  0.9999974756644494  0.9999940006831608  0.6432414283839700   T   T   T
  0.3333333333333357  0.6666666666666643  0.5328438986185660   F   F   F
  0.6666666666666643  0.3333333333333357  0.4217327875074517   F   F   F
  0.9999937660960853  0.5000013861238217  0.6432413672121586   T   T   T
  0.6666666666666643  0.8333333333333357  0.4217327875074517   F   F   F
  0.1666666666666643  0.8333333333333357  0.4217327875074517   F   F   F
  0.5000016248486945  0.0000026096730856  0.6432410121421190   T   T   T
  0.3333333333333357  0.1666666666666643  0.5328438986185660   F   F   F
  0.1666666666666643  0.3333333333333357  0.4217327875074517   F   F   F
  0.5000074369521367  0.5000008965932902  0.6432390120925088   T   T   T
  0.8333333333333357  0.1666666666666643  0.5328438986185660   F   F   F
  0.8333333333333357  0.6666666666666643  0.5328438986185660   F   F   F
