 vasp.6.4.3 19Mar24 (build Oct 31 2024 19:09:51) complex                         
 executed on             LinuxGNU date 2026.02.19  11:08:07
 running  128 mpi-ranks, with    1 threads/rank, on    1 nodes
 distrk:  each k-point on   32 cores,    4 groups
 distr:  one band on NCORE=  16 cores,    2 groups


--------------------------------------------------------------------------------------------------------


 INCAR:
   SYSTEM = mp-126_111 bare slab SP (RPBE-D3)
   PREC = Normal
   ENCUT = 400
   EDIFF = 1E-6
   EDIFFG = -0.02
   GGA = RP
   IVDW = 11
   ISPIN = 1
   NELM = 300
   ISMEAR = 0
   SIGMA = 0.1
   IBRION = 2
   NSW = 400
   ISIF = 2
   ISYM = 0
   LREAL = Auto
   ALGO = All
   LDIPOL = .TRUE.
   IDIPOL = 3
   DIPOL = 0.5 0.5 0.5
   LWAVE = .FALSE.
   LCHARG = .TRUE.
   NCORE = 16
   LASPH = .TRUE.
   AMIN = 0.01
   ADDGRID = .TRUE.
   LAECHG = .TRUE.
   KPAR = 4

 POTCAR:    PAW_PBE Pt 04Feb2005                  
 POTCAR:    PAW_PBE Pt 04Feb2005                  
   VRHFIN =Pt: s1d9                                                                                 
   LEXCH  = PE                                                                                      
   EATOM  =   729.1176 eV,   53.5886 Ry                                                             
                                                                                                    
   TITEL  = PAW_PBE Pt 04Feb2005                                                                    
   LULTRA =        F    use ultrasoft PP ?                                                          
   IUNSCR =        1    unscreen: 0-lin 1-nonlin 2-no                                               
   RPACOR =    2.330    partial core radius                                                         
   POMASS =  195.080; ZVAL   =   10.000    mass and valenz                                          
   RCORE  =    2.600    outmost cutoff radius                                                       
   RWIGS  =    2.750; RWIGS  =    1.455    wigner-seitz radius (au A)                               
   ENMAX  =  230.283; ENMIN  =  172.712 eV                                                          
   ICORE  =        3    local potential                                                             
   LCOR   =        T    correct aug charges                                                         
   LPAW   =        T    paw PP                                                                      
   EAUG   =  358.966                                                                                
   DEXC   =    0.000                                                                                
   RMAX   =    2.658    core radius for proj-oper                                                   
   RAUG   =    1.300    factor for augmentation sphere                                              
   RDEP   =    2.761    radius for radial grids                                                     
   RDEPT  =    2.203    core radius for aug-charge                                                  
                                                                                                    
   Atomic configuration                                                                             
   16 entries                                                                                       
     n  l   j            E        occ.                                                              
     1  0  0.50    -78401.1885   2.0000                                                             
     2  0  0.50    -13770.7750   2.0000                                                             
     2  1  1.50    -11931.0468   6.0000                                                             
     3  0  0.50     -3234.7234   2.0000                                                             
     3  1  1.50     -2699.2216   6.0000                                                             
     3  2  2.50     -2119.5714  10.0000                                                             
     4  0  0.50      -695.1528   2.0000                                                             
     4  1  1.50      -519.6034   6.0000                                                             
     4  2  2.50      -306.6786  10.0000                                                             
     4  3  3.50       -70.1041  14.0000                                                             
     5  0  0.50      -101.7747   2.0000                                                             
     5  1  1.50       -55.9873   6.0000                                                             
     5  2  2.50        -6.1423   9.0000                                                             
     6  0  0.50        -5.6573   1.0000                                                             
     6  1  1.50        -6.8029   0.0000                                                             
     5  3  2.50        -1.3606   0.0000                                                             
   Description                                                                                      
     l       E           TYP  RCUT    TYP  RCUT                                                     
     2     -6.1423404     23  2.500                                                                 
     2     -7.5029230     23  2.500                                                                 
     0     -5.6573207     23  2.500                                                                 
     0      0.7416693     23  2.500                                                                 
     1     -2.7211652     23  2.600                                                                 
     1     20.4087390     23  2.600                                                                 
     3     -1.3605826     23  2.500                                                                 
  local pseudopotential read in
  partial core-charges read in
  partial kinetic energy density read in
  atomic valenz-charges read in
  non local Contribution for L=           2  read in
    real space projection operators read in
  non local Contribution for L=           2  read in
    real space projection operators read in
  non local Contribution for L=           0  read in
    real space projection operators read in
  non local Contribution for L=           0  read in
    real space projection operators read in
  non local Contribution for L=           1  read in
    real space projection operators read in
  non local Contribution for L=           1  read in
    real space projection operators read in
    PAW grid and wavefunctions read in

   number of l-projection  operators is LMAX  =           6
   number of lm-projection operators is LMMAX =          18

 Optimization of the real space projectors (new method)

 maximal supplied QI-value         = 14.36
 optimisation between [QCUT,QGAM] = [ 10.20, 20.39] = [ 29.12,116.47] Ry 
 Optimized for a Real-space Cutoff    1.51 Angstroem

   l    n(q)    QCUT    max X(q) W(low)/X(q) W(high)/X(q)  e(spline) 
   2      8    10.197    66.195    0.45E-03    0.45E-03    0.14E-06
   2      8    10.197    64.643    0.46E-03    0.46E-03    0.14E-06
   0      9    10.197    95.520    0.15E-03    0.11E-03    0.54E-07
   0      9    10.197    63.403    0.15E-03    0.11E-03    0.52E-07
   1      9    10.197    19.961    0.13E-03    0.17E-03    0.77E-07
   1      9    10.197    13.289    0.10E-03    0.15E-03    0.67E-07
 -----------------------------------------------------------------------------
|                                                                             |
|               ----> ADVICE to this user running VASP <----                  |
|                                                                             |
|     You enforced a specific xc type in the INCAR file but a different       |
|     type was found in the POTCAR file.                                      |
|     I HOPE YOU KNOW WHAT YOU ARE DOING!                                     |
|                                                                             |
 -----------------------------------------------------------------------------

  PAW_PBE Pt 04Feb2005                  :
 energy of atom  1       EATOM= -729.1176
 kinetic energy error for atom=    0.0056 (will be added to EATOM!!)


 POSCAR: Pt
  positions in direct lattice
  No initial velocities read in
 IVDW         = 11
 VDW_S6       =    1.0000
 VDW_S8       =    0.5140
 VDW_SR       =    0.8720
 VDW_RADIUS   =   50.2022 A
 VDW_CNRADIUS =   21.1671 A


 exchange-correlation table for RP
   RHO(1)=    0.500       N(1)  =     2000
   RHO(2)=  100.500       N(2)  =     4000



--------------------------------------------------------------------------------------------------------


 ion  position               nearest neighbor table
   1  0.000  0.333  0.467-  13 2.82  38 2.82  32 2.82  34 2.82  52 2.82  21 2.82  41 2.82  46 2.82
                             9 2.82  11 2.82  36 2.82  17 2.82
   2  0.556  0.444  0.600-  12 2.82  49 2.82  18 2.82  20 2.82  51 2.82  33 2.82  54 2.82  39 2.82
                             8 2.82  19 2.82  50 2.82  25 2.82
   3  0.333  0.000  0.467-  44 2.82   7 2.82  50 2.82  21 2.82   9 2.82  34 2.82  46 2.82  41 2.82
                            52 2.82  42 2.82  48 2.82  30 2.82
   4  0.444  0.889  0.333-  42 2.82   5 2.82  48 2.82  35 2.82  28 2.82  53 2.82  10 2.82  22 2.82
                            47 2.82
   5  0.556  0.778  0.400-  22 2.82   4 2.82  28 2.82  23 2.82  11 2.82  36 2.82  27 2.82  42 2.82
                            48 2.82  21 2.82  15 2.82  52 2.82
   6  0.333  0.000  0.667-  51 2.82  45 2.82  33 2.82  24 2.82  12 2.82  37 2.82  26 2.82  49 2.82
                            43 2.82
   7  0.444  0.889  0.533-  21 2.82   3 2.82  52 2.82  38 2.82  44 2.82  25 2.82  13 2.82  50 2.82
                            40 2.82   8 2.82  45 2.82  51 2.82
   8  0.556  0.778  0.600-  26 2.82  24 2.82  18 2.82  54 2.82  14 2.82  39 2.82  45 2.82  51 2.82
                             2 2.82   7 2.82  25 2.82  40 2.82
   9  0.667  0.333  0.467-  50 2.82  19 2.82  13 2.82  46 2.82  15 2.82  34 2.82   3 2.82  21 2.82
                             1 2.82  27 2.82  48 2.82  17 2.82
  10  0.778  0.222  0.333-  11 2.82  48 2.82  17 2.82  35 2.82   4 2.82  29 2.82  16 2.82  47 2.82
                            22 2.82
  11  0.889  0.111  0.400-  10 2.82  29 2.82  22 2.82  17 2.82  48 2.82  36 2.82   5 2.82  23 2.82
                            30 2.82   1 2.82  21 2.82  41 2.82
  12  0.667  0.333  0.667-   2 2.82  20 2.82  51 2.82  49 2.82  18 2.82  37 2.82   6 2.82  31 2.82
                            24 2.82
  13  0.778  0.222  0.533-   1 2.82  21 2.82   9 2.82   7 2.82  38 2.82  32 2.82  19 2.82  40 2.82
                            50 2.82  14 2.82  20 2.82  51 2.82
  14  0.889  0.111  0.600-  24 2.82  31 2.82  43 2.82  20 2.82  51 2.82  39 2.82   8 2.82  33 2.82
                            54 2.82  13 2.82  32 2.82  40 2.82
  15  0.667  0.667  0.467-  25 2.82  19 2.82  40 2.82  46 2.82   9 2.82  52 2.82  41 2.82  21 2.82
                            34 2.82  27 2.82  23 2.82   5 2.82
  16  0.778  0.556  0.333-  27 2.82  23 2.82  17 2.82  22 2.82  53 2.82  47 2.82  35 2.82  10 2.82
                            28 2.82
  17  0.889  0.444  0.400-  10 2.82  16 2.82  35 2.82  48 2.82  11 2.82  27 2.82  42 2.82  23 2.82
                            36 2.82   1 2.82  34 2.82   9 2.82
  18  0.667  0.667  0.667-  54 2.82   8 2.82   2 2.82  49 2.82  12 2.82  26 2.82  43 2.82  37 2.82
                            24 2.82
  19  0.778  0.556  0.533-  34 2.82  15 2.82   9 2.82  40 2.82  44 2.82  50 2.82  25 2.82  13 2.82
                            38 2.82   2 2.82  20 2.82  54 2.82
  20  0.889  0.444  0.600-  12 2.82  31 2.82  37 2.82  51 2.82  14 2.82   2 2.82  45 2.82  39 2.82
                            54 2.82  13 2.82  19 2.82  38 2.82
  21  0.667  0.000  0.467-   7 2.82  13 2.82  40 2.82   3 2.82  52 2.82   1 2.82   9 2.82  41 2.82
                            15 2.82  11 2.82  48 2.82   5 2.82
  22  0.778  0.889  0.333-  23 2.82   5 2.82  11 2.82  16 2.82  28 2.82  29 2.82  10 2.82   4 2.82
                            53 2.82
  23  0.889  0.778  0.400-  22 2.82  16 2.82  53 2.82   5 2.82  27 2.82  30 2.82  11 2.82  42 2.82
                            17 2.82  15 2.82  41 2.82  34 2.82
  24  0.667  0.000  0.667-  14 2.82   8 2.82  51 2.82   6 2.82  26 2.82  31 2.82  18 2.82  43 2.82
                            12 2.82
  25  0.444  0.556  0.533-  52 2.82  15 2.82  46 2.82   7 2.82  38 2.82  40 2.82  32 2.82  50 2.82
                            19 2.82   8 2.82  39 2.82   2 2.82
  26  0.333  0.667  0.667-   8 2.82  39 2.82  45 2.82  18 2.82  49 2.82  31 2.82  24 2.82  37 2.82
                             6 2.82
  27  0.556  0.444  0.400-  16 2.82  47 2.82  28 2.82  17 2.82  48 2.82  30 2.82  23 2.82   5 2.82
                            36 2.82   9 2.82  15 2.82  46 2.82
  28  0.444  0.556  0.333-  36 2.82   5 2.82  27 2.82  35 2.82   4 2.82  22 2.82  29 2.82  16 2.82
                            47 2.82
  29  0.111  0.222  0.333-  30 2.82  36 2.82  11 2.82  47 2.82  28 2.82  22 2.82  10 2.82  35 2.82
                            53 2.82
  30  0.222  0.111  0.400-  29 2.82  47 2.82  53 2.82  36 2.82  27 2.82  23 2.82  11 2.82  48 2.82
                            42 2.82  46 2.82  41 2.82   3 2.82
  31  0.000  0.333  0.667-  39 2.82  20 2.82  14 2.82  37 2.82  26 2.82  24 2.82  12 2.82  43 2.82
                            49 2.82
  32  0.111  0.222  0.533-  46 2.82  41 2.82   1 2.82  50 2.82  25 2.82  40 2.82  44 2.82  13 2.82
                            38 2.82  33 2.82  39 2.82  14 2.82
  33  0.222  0.111  0.600-  43 2.82  49 2.82   6 2.82  39 2.82   2 2.82  54 2.82  14 2.82  51 2.82
                            45 2.82  32 2.82  50 2.82  44 2.82
  34  0.000  0.667  0.467-  19 2.82  38 2.82  44 2.82   1 2.82   9 2.82   3 2.82  41 2.82  15 2.82
                            52 2.82  17 2.82  42 2.82  23 2.82
  35  0.111  0.556  0.333-  36 2.82  42 2.82  17 2.82   4 2.82  28 2.82  53 2.82  10 2.82  29 2.82
                            16 2.82
  36  0.222  0.444  0.400-  28 2.82  29 2.82  35 2.82  30 2.82  11 2.82   5 2.82  17 2.82  27 2.82
                            42 2.82   1 2.82  46 2.82  52 2.82
  37  0.000  0.667  0.667-  45 2.82  20 2.82  54 2.82  31 2.82  12 2.82   6 2.82  43 2.82  26 2.82
                            18 2.82
  38  0.111  0.556  0.533-  52 2.82  34 2.82   1 2.82   7 2.82  44 2.82  25 2.82  13 2.82  32 2.82
                            19 2.82  45 2.82  39 2.82  20 2.82
  39  0.222  0.444  0.600-  31 2.82  26 2.82  49 2.82  33 2.82  14 2.82   8 2.82   2 2.82  45 2.82
                            20 2.82  38 2.82  32 2.82  25 2.82
  40  0.778  0.889  0.533-  41 2.82  15 2.82  21 2.82  19 2.82  25 2.82  32 2.82   7 2.82  13 2.82
                            44 2.82  54 2.82   8 2.82  14 2.82
  41  0.000  0.000  0.467-  40 2.82  32 2.82  44 2.82  15 2.82  46 2.82  34 2.82   1 2.82  21 2.82
                             3 2.82  30 2.82  23 2.82  11 2.82
  42  0.222  0.778  0.400-  53 2.82   4 2.82  35 2.82  48 2.82  17 2.82   5 2.82  36 2.82  23 2.82
                            30 2.82   3 2.82  34 2.82  52 2.82
  43  0.000  0.000  0.667-  33 2.82  54 2.82  14 2.82  49 2.82  18 2.82   6 2.82  37 2.82  24 2.82
                            31 2.82
  44  0.111  0.889  0.533-   3 2.82  34 2.82  41 2.82  38 2.82   7 2.82  19 2.82  50 2.82  32 2.82
                            40 2.82  45 2.82  54 2.82  33 2.82
  45  0.222  0.778  0.600-  37 2.82   6 2.82  26 2.82  20 2.82  51 2.82   8 2.82  39 2.82  33 2.82
                            54 2.82  44 2.82   7 2.82  38 2.82
  46  0.333  0.333  0.467-  32 2.82  25 2.82  50 2.82  15 2.82   9 2.82  52 2.82  41 2.82   3 2.82
                             1 2.82  30 2.82  27 2.82  36 2.82
  47  0.444  0.222  0.333-  30 2.82  27 2.82  48 2.82  29 2.82  53 2.82  16 2.82  10 2.82  28 2.82
                             4 2.82
  48  0.556  0.111  0.400-  10 2.82  47 2.82   4 2.82  17 2.82  27 2.82  11 2.82  42 2.82   5 2.82
                            30 2.82   3 2.82  21 2.82   9 2.82
  49  0.333  0.333  0.667-   2 2.82  33 2.82  39 2.82  18 2.82  12 2.82  26 2.82  43 2.82  31 2.82
                             6 2.82
  50  0.444  0.222  0.533-   9 2.82   3 2.82  46 2.82  32 2.82  44 2.82  19 2.82  13 2.82   7 2.82
                            25 2.82   2 2.82  33 2.82  51 2.82
  51  0.556  0.111  0.600-   6 2.82  12 2.82  24 2.82  20 2.82   2 2.82  14 2.82  45 2.82  33 2.82
                             8 2.82  13 2.82  50 2.82   7 2.82
  52  0.333  0.667  0.467-  25 2.82  38 2.82   7 2.82  15 2.82  46 2.82   1 2.82  21 2.82   3 2.82
                            34 2.82   5 2.82  36 2.82  42 2.82
  53  0.111  0.889  0.333-  42 2.82  23 2.82  30 2.82  35 2.82   4 2.82  16 2.82  47 2.82  22 2.82
                            29 2.82
  54  0.889  0.778  0.600-  18 2.82  43 2.82  37 2.82   8 2.82   2 2.82  33 2.82  20 2.82  14 2.82
                            45 2.82  40 2.82  19 2.82  44 2.82


IMPORTANT INFORMATION: All symmetrisations will be switched off!
NOSYMM: (Re-)initialisation of all symmetry stuff for point group C_1.


----------------------------------------------------------------------------------------

                                     Primitive cell                                     

  volume of cell :    2143.6130

  direct lattice vectors                    reciprocal lattice vectors
     8.463768833  0.000000000  0.000000000     0.118150675  0.068214324 -0.000000000
    -4.231884417  7.329838821  0.000000000     0.000000000  0.136428648  0.000000000
     0.000000000  0.000000000 34.553191570    -0.000000000 -0.000000000  0.028940887

  length of vectors
     8.463768833  8.463768833 34.553191570     0.136428648  0.136428648  0.028940887

  position of ions in fractional coordinates (direct lattice)
     0.000000000  0.333333333  0.466666667
     0.555555556  0.444444444  0.600000000
     0.333333333  0.000000000  0.466666667
     0.444444444  0.888888889  0.333333333
     0.555555556  0.777777778  0.400000000
     0.333333333  0.000000000  0.666666667
     0.444444444  0.888888889  0.533333333
     0.555555556  0.777777778  0.600000000
     0.666666667  0.333333333  0.466666667
     0.777777778  0.222222222  0.333333333
     0.888888889  0.111111111  0.400000000
     0.666666667  0.333333333  0.666666667
     0.777777778  0.222222222  0.533333333
     0.888888889  0.111111111  0.600000000
     0.666666667  0.666666667  0.466666667
     0.777777778  0.555555556  0.333333333
     0.888888889  0.444444444  0.400000000
     0.666666667  0.666666667  0.666666667
     0.777777778  0.555555556  0.533333333
     0.888888889  0.444444444  0.600000000
     0.666666667  0.000000000  0.466666667
     0.777777778  0.888888889  0.333333333
     0.888888889  0.777777778  0.400000000
     0.666666667  0.000000000  0.666666667
     0.444444444  0.555555556  0.533333333
     0.333333333  0.666666667  0.666666667
     0.555555556  0.444444444  0.400000000
     0.444444444  0.555555556  0.333333333
     0.111111111  0.222222222  0.333333333
     0.222222222  0.111111111  0.400000000
     0.000000000  0.333333333  0.666666667
     0.111111111  0.222222222  0.533333333
     0.222222222  0.111111111  0.600000000
     0.000000000  0.666666667  0.466666667
     0.111111111  0.555555556  0.333333333
     0.222222222  0.444444444  0.400000000
     0.000000000  0.666666667  0.666666667
     0.111111111  0.555555556  0.533333333
     0.222222222  0.444444444  0.600000000
     0.777777778  0.888888889  0.533333333
     0.000000000  0.000000000  0.466666667
     0.222222222  0.777777778  0.400000000
     0.000000000  0.000000000  0.666666667
     0.111111111  0.888888889  0.533333333
     0.222222222  0.777777778  0.600000000
     0.333333333  0.333333333  0.466666667
     0.444444444  0.222222222  0.333333333
     0.555555556  0.111111111  0.400000000
     0.333333333  0.333333333  0.666666667
     0.444444444  0.222222222  0.533333333
     0.555555556  0.111111111  0.600000000
     0.333333333  0.666666667  0.466666667
     0.111111111  0.888888889  0.333333333
     0.888888889  0.777777778  0.600000000

  ion indices of the primitive-cell ions
   primitive index   ion index
                 1           1
                 2           2
                 3           3
                 4           4
                 5           5
                 6           6
                 7           7
                 8           8
                 9           9
                10          10
                11          11
                12          12
                13          13
                14          14
                15          15
                16          16
                17          17
                18          18
                19          19
                20          20
                21          21
                22          22
                23          23
                24          24
                25          25
                26          26
                27          27
                28          28
                29          29
                30          30
                31          31
                32          32
                33          33
                34          34
                35          35
                36          36
                37          37
                38          38
                39          39
                40          40
                41          41
                42          42
                43          43
                44          44
                45          45
                46          46
                47          47
                48          48
                49          49
                50          50
                51          51
                52          52
                53          53
                54          54

----------------------------------------------------------------------------------------



 KPOINTS: Automatic mesh                          

Automatic generation of k-mesh.
 Grid dimensions read from file:
 generate k-points for:    5    5    1

 Generating k-lattice:

  Cartesian coordinates                     Fractional coordinates (reciprocal lattice)
     0.023630135  0.013642865 -0.000000000     0.200000000 -0.000000000  0.000000000
     0.000000000  0.027285730  0.000000000     0.000000000  0.200000000  0.000000000
    -0.000000000 -0.000000000  0.028940887    -0.000000000 -0.000000000  1.000000000

  Length of vectors
     0.027285730  0.027285730  0.028940887

  Shift w.r.t. Gamma in fractional coordinates (k-lattice)
     0.000000000  0.000000000  0.000000000

 
 Subroutine IBZKPT returns following result:
 ===========================================
 
 Found     13 irreducible k-points:
 
 Following reciprocal coordinates:
            Coordinates               Weight
  0.000000  0.000000  0.000000      1.000000
  0.200000  0.000000  0.000000      2.000000
  0.000000  0.200000  0.000000      2.000000
 -0.200000  0.200000  0.000000      2.000000
  0.400000  0.000000  0.000000      2.000000
  0.000000  0.400000  0.000000      2.000000
 -0.400000  0.400000  0.000000      2.000000
  0.200000  0.200000  0.000000      2.000000
 -0.200000  0.400000  0.000000      2.000000
 -0.400000  0.200000  0.000000      2.000000
  0.400000  0.200000  0.000000      2.000000
 -0.200000 -0.400000  0.000000      2.000000
  0.400000  0.400000  0.000000      2.000000
 
 Following cartesian coordinates:
            Coordinates               Weight
  0.000000  0.000000  0.000000      1.000000
  0.023630  0.013643  0.000000      2.000000
  0.000000  0.027286  0.000000      2.000000
 -0.023630  0.013643  0.000000      2.000000
  0.047260  0.027286  0.000000      2.000000
  0.000000  0.054571  0.000000      2.000000
 -0.047260  0.027286  0.000000      2.000000
  0.023630  0.040929  0.000000      2.000000
 -0.023630  0.040929  0.000000      2.000000
 -0.047260  0.000000  0.000000      2.000000
  0.047260  0.054571  0.000000      2.000000
 -0.023630 -0.068214  0.000000      2.000000
  0.047260  0.081857  0.000000      2.000000
 


--------------------------------------------------------------------------------------------------------




 Dimension of arrays:
   k-points           NKPTS =     13   k-points in BZ     NKDIM =     13   number of bands    NBANDS=    324
   number of dos      NEDOS =    301   number of ions     NIONS =     54
   non local maximal  LDIM  =      6   non local SUM 2l+1 LMDIM =     18
   total plane-waves  NPLWV = 317520
   max r-space proj   IRMAX =   2180   max aug-charges    IRDMAX=  71963
   dimension x,y,z NGX =    42 NGY =   42 NGZ =  180
   dimension x,y,z NGXF=    84 NGYF=   84 NGZF=  360
   support grid    NGXF=   168 NGYF=  168 NGZF=  720
   ions per type =              54
   NGX,Y,Z   is equivalent  to a cutoff of   8.25,  8.25,  8.66 a.u.
   NGXF,Y,Z  is equivalent  to a cutoff of  16.50, 16.50, 17.32 a.u.

 SYSTEM =  mp-126_111 bare slab SP (RPBE-D3)       
 POSCAR =  Pt                                      

 Startparameter for this run:
   NWRITE =      2    write-flag & timer
   PREC   = normal    normal or accurate (medium, high low for compatibility)
   ISTART =      0    job   : 0-new  1-cont  2-samecut
   ICHARG =      2    charge: 1-file 2-atom 10-const
   ISPIN  =      1    spin polarized calculation?
   LNONCOLLINEAR =      F non collinear calculations
   LSORBIT =      F    spin-orbit coupling
   INIWAV =      1    electr: 0-lowe 1-rand  2-diag
   LASPH  =      T    aspherical Exc in radial PAW
 Electronic Relaxation 1
   ENCUT  =  400.0 eV  29.40 Ry    5.42 a.u.  13.80 13.80 56.35*2*pi/ulx,y,z
   ENINI  =  400.0     initial cutoff
   ENAUG  =  359.0 eV  augmentation charge cutoff
   NELM   =    300;   NELMIN=  2; NELMDL=  0     # of ELM steps 
   EDIFF  = 0.1E-05   stopping-criterion for ELM
   LREAL  =      T    real-space projection
   NLSPLINE    = F    spline interpolate recip. space projectors
   LCOMPAT=      F    compatible to vasp.4.4
   GGA_COMPAT  = T    GGA compatible to vasp.4.4-vasp.4.6
   LMAXPAW     = -100 max onsite density
   LMAXMIX     =    2 max onsite mixed and CHGCAR
   VOSKOWN=      0    Vosko Wilk Nusair interpolation
   ROPT   =   -0.00050
 Ionic relaxation
   EDIFFG = -.2E-01   stopping-criterion for IOM
   NSW    =    400    number of steps for IOM
   NBLOCK =      1;   KBLOCK =    400    inner block; outer block 
   IBRION =      2    ionic relax: 0-MD 1-quasi-New 2-CG
   NFREE  =      1    steps in history (QN), initial steepest desc. (CG)
   ISIF   =      2    stress and relaxation
   IWAVPR =     11    prediction:  0-non 1-charg 2-wave 3-comb
   ISYM   =      0    0-nonsym 1-usesym 2-fastsym
   LCORR  =      T    Harris-Foulkes like correction to forces

   POTIM  = 0.5000    time-step for ionic-motion
   TEIN   =    0.0    initial temperature
   TEBEG  =    0.0;   TEEND  =   0.0 temperature during run
   SMASS  =  -3.00    Nose mass-parameter (am)
   estimated Nose-frequenzy (Omega)   =  0.10E-29 period in steps = 0.13E+47 mass=  -0.164E-26a.u.
   SCALEE = 1.0000    scale energy and forces
   NPACO  =    256;   APACO  = 10.0  distance and # of slots for P.C.
   PSTRESS=    0.0 pullay stress

  Mass of Ions in am
   POMASS = 195.08
  Ionic Valenz
   ZVAL   =  10.00
  Atomic Wigner-Seitz radii
   RWIGS  =  -1.00
  virtual crystal weights 
   VCA    =   1.00
   NELECT =     540.0000    total number of electrons
   NUPDOWN=      -1.0000    fix difference up-down

 DOS related values:
   EMIN   =  10.00;   EMAX   =-10.00  energy-range for DOS
   EFERMI =   0.00;   METHOD = LEGACY      
   ISMEAR =     0;   SIGMA  =   0.10  broadening in eV -4-tet -1-fermi 0-gaus

 Electronic relaxation 2 (details)
   IALGO  =     58    algorithm
   LDIAG  =      T    sub-space diagonalisation (order eigenvalues)
   LSUBROT=      F    optimize rotation matrix (better conditioning)
   TURBO    =      0    0=normal 1=particle mesh
   IRESTART =      0    0=no restart 2=restart with 2 vectors
   NREBOOT  =      0    no. of reboots
   NMIN     =      0    reboot dimension
   EREF     =   0.00    reference energy to select bands
   IMIX   =      4    mixing-type and parameters
     AMIX     =   0.40;   BMIX     =  1.00
     AMIX_MAG =   1.60;   BMIX_MAG =  1.00
     AMIN     =   0.01
     WC   =   100.;   INIMIX=   1;  MIXPRE=   1;  MAXMIX= -45

 Intra band minimization:
   WEIMIN = 0.0010     energy-eigenvalue tresh-hold
   EBREAK =  0.77E-09  absolut break condition
   DEPER  =   0.30     relativ break condition  

   TIME   =   0.40     timestep for ELM

  volume/ion in A,a.u.               =      39.70       267.89
  Fermi-wavevector in a.u.,A,eV,Ry     =   1.033929  1.953842 14.544747  1.069009
  Thomas-Fermi vector in A             =   2.168199

 Write flags
   LWAVE        =      F    write WAVECAR
   LDOWNSAMPLE  =      F    k-point downsampling of WAVECAR
   LCHARG       =      T    write CHGCAR
   LVTOT        =      F    write LOCPOT, total local potential
   LVHAR        =      F    write LOCPOT, Hartree potential only
   WRT_POTENTIAL= false  ! write potential to hdf5 file
   LELF         =      F    write electronic localiz. function (ELF)
   LORBIT       =      0    0 simple, 1 ext, 2 COOP (PROOUT), +10 PAW based schemes


 Dipole corrections
   LMONO      =      F    monopole corrections only (constant potential shift)
   LDIPOL     =      T    correct potential (dipole corrections)
   IDIPOL     =      3    1-x, 2-y, 3-z, 4-all directions 
   EPSILON    =  1.0000000 bulk dielectric constant
   LVACPOTAV  =      F  vacuum potentials using an averaging scheme for the charge density
   VACPOTFLAT =  0.1000000 required flatness to determine vacuum potential
 Exchange correlation treatment:
   GGA     = RP    functional components
   XC_C    = 1    coefficients multiplying the functional components
   LIBXC   =     F    Libxc                    
   VOSKOWN =     0    Vosko Wilk Nusair interpolation
   LHFCALC =     F    Hartree Fock is set to
   LHFONE  =     F    Hartree Fock one center treatment
   AEXX    =    0.0000 exact exchange contribution

 Parameters of functionals:
   RP:
     No parameter

 Van der Waals corrections
   IVDW    =    11    specifies the selected vdW correction

 Linear response parameters
   LEPSILON=     F    determine dielectric tensor
   LRPA    =     F    only Hartree local field effects (RPA)
   LNABLA  =     F    use nabla operator in PAW spheres
   LVEL    =     F    velocity operator in full k-point grid
   CSHIFT  =0.1000    complex shift for real part using Kramers Kronig
   OMEGAMAX=  -1.0    maximum frequency
   DEG_THRESHOLD= 0.2000000E-02 threshold for treating states as degnerate
   RTIME   =   -0.100 relaxation time in fs
  (WPLASMAI=    0.000 imaginary part of plasma frequency in eV, 0.658/RTIME)
   DFIELD  = 0.0000000 0.0000000 0.0000000 field for delta impulse in time

  Optional k-point grid parameters
   LKPOINTS_OPT  =     F    use optional k-point grid
   KPOINTS_OPT_MODE=     1    mode for optional k-point grid

 Orbital magnetization related:
   ORBITALMAG=     F  switch on orbital magnetization
   LCHIMAG   =     F  perturbation theory with respect to B field
   DQ        =  0.001000  dq finite difference perturbation B field
   LLRAUG    =     F  two centre corrections for induced B field
   LBONE     =     F  B-component reconstruction in AE one-centre
   LVGVCALC  =     T  calculate vGv susceptibility
   LVGVAPPL  =     F  apply vGv susceptibility instead of pGv for G=0

 Random number generation:
   RANDOM_GENERATOR = DEFAULT
   PCG_SEED         = not used


--------------------------------------------------------------------------------------------------------


 conjugate gradient relaxation of ions
   using selective dynamics as specified on POSCAR
 charge density and potential will be updated during run
 non-spin polarized calculation
 Conjugate gradient for all bands (Freysoldt, et al. PRB 79, 241103 (2009))
 preconditioned conjugated gradient                                        
 perform sub-space diagonalisation
    before iterative eigenvector-optimisation
 modified Broyden-mixing scheme, WC =      100.0
 initial mixing is a Kerker type mixing with AMIX =  0.4000 and BMIX =      1.0000
 Hartree-type preconditioning will be used
 using additional bands           54
 real space projection scheme for non local part
 use partial core corrections
 no Harris-corrections to forces 
 use gradient corrections 
 use of overlap-Matrix (Vanderbilt PP)
 Gauss-broadening in eV      SIGMA  =   0.10


--------------------------------------------------------------------------------------------------------


  energy-cutoff  :      400.00
  volume of cell :     2143.61
      direct lattice vectors                 reciprocal lattice vectors
     8.463768833  0.000000000  0.000000000     0.118150675  0.068214324 -0.000000000
    -4.231884417  7.329838821  0.000000000     0.000000000  0.136428648  0.000000000
     0.000000000  0.000000000 34.553191570    -0.000000000 -0.000000000  0.028940887

  length of vectors
     8.463768833  8.463768833 34.553191570     0.136428648  0.136428648  0.028940887



 k-points in units of 2pi/SCALE and weight: Automatic mesh                          
   0.00000000  0.00000000  0.00000000       0.040
   0.02363013  0.01364286  0.00000000       0.080
   0.00000000  0.02728573  0.00000000       0.080
  -0.02363013  0.01364286  0.00000000       0.080
   0.04726027  0.02728573  0.00000000       0.080
   0.00000000  0.05457146  0.00000000       0.080
  -0.04726027  0.02728573  0.00000000       0.080
   0.02363013  0.04092859  0.00000000       0.080
  -0.02363013  0.04092859  0.00000000       0.080
  -0.04726027  0.00000000  0.00000000       0.080
   0.04726027  0.05457146  0.00000000       0.080
  -0.02363013 -0.06821432  0.00000000       0.080
   0.04726027  0.08185719  0.00000000       0.080

 k-points in reciprocal lattice and weights: Automatic mesh                          
   0.00000000  0.00000000  0.00000000       0.040
   0.20000000  0.00000000  0.00000000       0.080
   0.00000000  0.20000000  0.00000000       0.080
  -0.20000000  0.20000000  0.00000000       0.080
   0.40000000  0.00000000  0.00000000       0.080
   0.00000000  0.40000000  0.00000000       0.080
  -0.40000000  0.40000000  0.00000000       0.080
   0.20000000  0.20000000  0.00000000       0.080
  -0.20000000  0.40000000  0.00000000       0.080
  -0.40000000  0.20000000  0.00000000       0.080
   0.40000000  0.20000000  0.00000000       0.080
  -0.20000000 -0.40000000  0.00000000       0.080
   0.40000000  0.40000000  0.00000000       0.080

 position of ions in fractional coordinates (direct lattice) 
   0.00000000  0.33333333  0.46666667
   0.55555556  0.44444444  0.60000000
   0.33333333  0.00000000  0.46666667
   0.44444444  0.88888889  0.33333333
   0.55555556  0.77777778  0.40000000
   0.33333333  0.00000000  0.66666667
   0.44444444  0.88888889  0.53333333
   0.55555556  0.77777778  0.60000000
   0.66666667  0.33333333  0.46666667
   0.77777778  0.22222222  0.33333333
   0.88888889  0.11111111  0.40000000
   0.66666667  0.33333333  0.66666667
   0.77777778  0.22222222  0.53333333
   0.88888889  0.11111111  0.60000000
   0.66666667  0.66666667  0.46666667
   0.77777778  0.55555556  0.33333333
   0.88888889  0.44444444  0.40000000
   0.66666667  0.66666667  0.66666667
   0.77777778  0.55555556  0.53333333
   0.88888889  0.44444444  0.60000000
   0.66666667  0.00000000  0.46666667
   0.77777778  0.88888889  0.33333333
   0.88888889  0.77777778  0.40000000
   0.66666667  0.00000000  0.66666667
   0.44444444  0.55555556  0.53333333
   0.33333333  0.66666667  0.66666667
   0.55555556  0.44444444  0.40000000
   0.44444444  0.55555556  0.33333333
   0.11111111  0.22222222  0.33333333
   0.22222222  0.11111111  0.40000000
   0.00000000  0.33333333  0.66666667
   0.11111111  0.22222222  0.53333333
   0.22222222  0.11111111  0.60000000
   0.00000000  0.66666667  0.46666667
   0.11111111  0.55555556  0.33333333
   0.22222222  0.44444444  0.40000000
   0.00000000  0.66666667  0.66666667
   0.11111111  0.55555556  0.53333333
   0.22222222  0.44444444  0.60000000
   0.77777778  0.88888889  0.53333333
   0.00000000  0.00000000  0.46666667
   0.22222222  0.77777778  0.40000000
   0.00000000  0.00000000  0.66666667
   0.11111111  0.88888889  0.53333333
   0.22222222  0.77777778  0.60000000
   0.33333333  0.33333333  0.46666667
   0.44444444  0.22222222  0.33333333
   0.55555556  0.11111111  0.40000000
   0.33333333  0.33333333  0.66666667
   0.44444444  0.22222222  0.53333333
   0.55555556  0.11111111  0.60000000
   0.33333333  0.66666667  0.46666667
   0.11111111  0.88888889  0.33333333
   0.88888889  0.77777778  0.60000000

 position of ions in cartesian coordinates  (Angst):
  -1.41062814  2.44327961 16.12482273
   2.82125628  3.25770614 20.73191494
   2.82125628  0.00000000 16.12482273
  -0.00000000  6.51541229 11.51773052
   1.41062814  5.70098575 13.82127663
   2.82125628  0.00000000 23.03546105
  -0.00000000  6.51541229 18.42836884
   1.41062814  5.70098575 20.73191494
   4.23188442  2.44327961 16.12482273
   5.64251256  1.62885307 11.51773052
   7.05314069  0.81442654 13.82127663
   4.23188442  2.44327961 23.03546105
   5.64251256  1.62885307 18.42836884
   7.05314069  0.81442654 20.73191494
   2.82125628  4.88655921 16.12482273
   4.23188442  4.07213268 11.51773052
   5.64251256  3.25770614 13.82127663
   2.82125628  4.88655921 23.03546105
   4.23188442  4.07213268 18.42836884
   5.64251256  3.25770614 20.73191494
   5.64251256  0.00000000 16.12482273
   2.82125628  6.51541229 11.51773052
   4.23188442  5.70098575 13.82127663
   5.64251256  0.00000000 23.03546105
   1.41062814  4.07213268 18.42836884
   0.00000000  4.88655921 23.03546105
   2.82125628  3.25770614 13.82127663
   1.41062814  4.07213268 11.51773052
   0.00000000  1.62885307 11.51773052
   1.41062814  0.81442654 13.82127663
  -1.41062814  2.44327961 23.03546105
   0.00000000  1.62885307 18.42836884
   1.41062814  0.81442654 20.73191494
  -2.82125628  4.88655921 16.12482273
  -1.41062814  4.07213268 11.51773052
  -0.00000000  3.25770614 13.82127663
  -2.82125628  4.88655921 23.03546105
  -1.41062814  4.07213268 18.42836884
  -0.00000000  3.25770614 20.73191494
   2.82125628  6.51541229 18.42836884
   0.00000000  0.00000000 16.12482273
  -1.41062814  5.70098575 13.82127663
   0.00000000  0.00000000 23.03546105
  -2.82125628  6.51541229 18.42836884
  -1.41062814  5.70098575 20.73191494
   1.41062814  2.44327961 16.12482273
   2.82125628  1.62885307 11.51773052
   4.23188442  0.81442654 13.82127663
   1.41062814  2.44327961 23.03546105
   2.82125628  1.62885307 18.42836884
   4.23188442  0.81442654 20.73191494
   0.00000000  4.88655921 16.12482273
  -2.82125628  6.51541229 11.51773052
   4.23188442  5.70098575 20.73191494



--------------------------------------------------------------------------------------------------------


 k-point     1 :   0.0000 0.0000 0.0000  plane waves:   38855
 k-point     2 :   0.2000 0.0000 0.0000  plane waves:   38868
 k-point     3 :   0.0000 0.2000 0.0000  plane waves:   38868
 k-point     4 :  -0.2000 0.2000 0.0000  plane waves:   38868
 k-point     5 :   0.4000 0.0000 0.0000  plane waves:   38980
 k-point     6 :   0.0000 0.4000 0.0000  plane waves:   38980
 k-point     7 :  -0.4000 0.4000 0.0000  plane waves:   38980
 k-point     8 :   0.2000 0.2000 0.0000  plane waves:   38974
 k-point     9 :  -0.2000 0.4000 0.0000  plane waves:   38974
 k-point    10 :  -0.4000 0.2000 0.0000  plane waves:   38974
 k-point    11 :   0.4000 0.2000 0.0000  plane waves:   38882
 k-point    12 :  -0.2000-0.4000 0.0000  plane waves:   38882
 k-point    13 :   0.4000 0.4000 0.0000  plane waves:   38882

 maximum and minimum number of plane-waves per node :      2466     2406

 maximum number of plane-waves:     38980
 maximum index in each direction: 
   IXMAX=   14   IYMAX=   14   IZMAX=   56
   IXMIN=  -14   IYMIN=  -14   IZMIN=  -56


 real space projection operators:
  total allocation   :      15696.28 KBytes
  max/ min on nodes  :       1135.69        735.75


 parallel 3D FFT for wavefunctions:
    minimum data exchange during FFTs selected (reduces bandwidth)
 parallel 3D FFT for charge:
    minimum data exchange during FFTs selected (reduces bandwidth)


 total amount of memory used by VASP MPI-rank0   306182. kBytes
=======================================================================

   base      :      30000. kBytes
   nonlr-proj:       3347. kBytes
   fftplans  :      13562. kBytes
   grid      :       5279. kBytes
   one-center:         62. kBytes
   wavefun   :     253932. kBytes

     INWAV:  cpu time      0.0001: real time      0.0001
 Broyden mixing: mesh for mixing (old mesh)
   NGX = 27   NGY = 27   NGZ =113
  (NGX  = 84   NGY  = 84   NGZ  =360)
  gives a total of  82377 points

 initial charge density was supplied:
 charge density of overlapping atoms calculated
 number of electron     540.0000000 magnetization 
 charge density for first step will be calculated from the start-wavefunctions


--------------------------------------------------------------------------------------------------------


 Maximum index for non-local projection operator          236
 Maximum index for augmentation-charges         3614 (set IRDMAX)


--------------------------------------------------------------------------------------------------------


 First call to EWALD:  gamma=   0.137
 Maximum number of real-space cells 4x 4x 1
 Maximum number of reciprocal cells 2x 2x 7

    FEWALD:  cpu time      0.0306: real time      0.0309


--------------------------------------- Ionic step        1  -------------------------------------------




--------------------------------------- Iteration      1(   1)  ---------------------------------------


    POTLOK:  cpu time      0.0590: real time      0.0596
    SETDIJ:  cpu time      0.3042: real time      0.3066
    TRIAL :  cpu time      7.6214: real time      7.7661
    CORREC:  cpu time      0.0014: real time      0.0015
    --------------------------------------------
      LOOP:  cpu time      8.1177: real time      8.3014

 eigenvalue-minimisations  :  8472
 total energy-change (2. order) : 0.3370501E+04  (-0.2223748E+05)
 number of electron     540.0000000 magnetization 
 augmentation part      540.0000000 magnetization 

 DIPCOR: dipole corrections for dipol
 direction  3 min pos     1,
 dipolmoment           0.000000      0.000000      0.000000 electrons x Angstroem
 Tr[quadrupol]     -6330.394738

 energy correction for charged system         0.000000 eV
 dipol+quadrupol energy correction           -0.000000 eV
 added-field ion interaction         -0.000000 eV  (added to PSCEN)


 Free energy of the ion-electron system (eV)
  ---------------------------------------------------
  alpha Z        PSCENC =      1293.09676753
  Ewald energy   TEWEN  =    404356.23868338
  -Hartree energ DENC   =   -446114.02156558
  -exchange      EXHF   =         0.00000000
  -V(xc)+E(xc)   XCENC  =       167.07643208
  PAW double counting   =     37622.12132287   -36042.74674266
  entropy T*S    EENTRO =        -0.12874317
  eigenvalues    EBANDS =      2759.65025331
  atomic energy  EATOM  =     39329.21466429
  ---------------------------------------------------
  free energy    TOTEN  =      3370.50107204 eV

  energy without entropy =     3370.62981521  energy(sigma->0) =     3370.56544363


--------------------------------------------------------------------------------------------------------




--------------------------------------- Iteration      1(   2)  ---------------------------------------


    TRIAL :  cpu time      8.7862: real time      9.3685
    CORREC:  cpu time      0.0017: real time      0.0022
    --------------------------------------------
      LOOP:  cpu time      8.7898: real time      9.3726

 eigenvalue-minimisations  :  9960
 total energy-change (2. order) :-0.3418058E+04  (-0.3154866E+04)
 number of electron     540.0000000 magnetization 
 augmentation part      540.0000000 magnetization 

 DIPCOR: dipole corrections for dipol
 direction  3 min pos     1,
 dipolmoment           0.000000      0.000000      0.000000 electrons x Angstroem
 Tr[quadrupol]     -6330.394738

 energy correction for charged system         0.000000 eV
 dipol+quadrupol energy correction           -0.000000 eV
 added-field ion interaction         -0.000000 eV  (added to PSCEN)


 Free energy of the ion-electron system (eV)
  ---------------------------------------------------
  alpha Z        PSCENC =      1293.09676753
  Ewald energy   TEWEN  =    404356.23868338
  -Hartree energ DENC   =   -446114.02156558
  -exchange      EXHF   =         0.00000000
  -V(xc)+E(xc)   XCENC  =       167.07643208
  PAW double counting   =     37622.12132287   -36042.74674266
  entropy T*S    EENTRO =        -0.21352208
  eigenvalues    EBANDS =      -658.32257300
  atomic energy  EATOM  =     39329.21466429
  ---------------------------------------------------
  free energy    TOTEN  =       -47.55653317 eV

  energy without entropy =      -47.34301110  energy(sigma->0) =      -47.44977213


--------------------------------------------------------------------------------------------------------




--------------------------------------- Iteration      1(   3)  ---------------------------------------


    TRIAL :  cpu time      8.6374: real time      8.7230
    CORREC:  cpu time      0.0018: real time      0.0023
    --------------------------------------------
      LOOP:  cpu time      8.6401: real time      8.7261

 eigenvalue-minimisations  :  9928
 total energy-change (2. order) :-0.2436621E+03  (-0.2188101E+03)
 number of electron     540.0000000 magnetization 
 augmentation part      540.0000000 magnetization 

 DIPCOR: dipole corrections for dipol
 direction  3 min pos     1,
 dipolmoment           0.000000      0.000000      0.000000 electrons x Angstroem
 Tr[quadrupol]     -6330.394738

 energy correction for charged system         0.000000 eV
 dipol+quadrupol energy correction           -0.000000 eV
 added-field ion interaction         -0.000000 eV  (added to PSCEN)


 Free energy of the ion-electron system (eV)
  ---------------------------------------------------
  alpha Z        PSCENC =      1293.09676753
  Ewald energy   TEWEN  =    404356.23868338
  -Hartree energ DENC   =   -446114.02156558
  -exchange      EXHF   =         0.00000000
  -V(xc)+E(xc)   XCENC  =       167.07643208
  PAW double counting   =     37622.12132287   -36042.74674266
  entropy T*S    EENTRO =        -0.45947651
  eigenvalues    EBANDS =      -901.73867438
  atomic energy  EATOM  =     39329.21466429
  ---------------------------------------------------
  free energy    TOTEN  =      -291.21858899 eV

  energy without entropy =     -290.75911247  energy(sigma->0) =     -290.98885073


--------------------------------------------------------------------------------------------------------




--------------------------------------- Iteration      1(   4)  ---------------------------------------


    TRIAL :  cpu time      9.4953: real time      9.5888
    CORREC:  cpu time      0.0018: real time      0.0023
    --------------------------------------------
      LOOP:  cpu time      9.4981: real time      9.5921

 eigenvalue-minimisations  : 11184
 total energy-change (2. order) :-0.1184028E+02  (-0.1116168E+02)
 number of electron     540.0000000 magnetization 
 augmentation part      540.0000000 magnetization 

 DIPCOR: dipole corrections for dipol
 direction  3 min pos     1,
 dipolmoment           0.000000      0.000000      0.000000 electrons x Angstroem
 Tr[quadrupol]     -6330.394738

 energy correction for charged system         0.000000 eV
 dipol+quadrupol energy correction           -0.000000 eV
 added-field ion interaction         -0.000000 eV  (added to PSCEN)


 Free energy of the ion-electron system (eV)
  ---------------------------------------------------
  alpha Z        PSCENC =      1293.09676753
  Ewald energy   TEWEN  =    404356.23868338
  -Hartree energ DENC   =   -446114.02156558
  -exchange      EXHF   =         0.00000000
  -V(xc)+E(xc)   XCENC  =       167.07643208
  PAW double counting   =     37622.12132287   -36042.74674266
  entropy T*S    EENTRO =        -0.46672231
  eigenvalues    EBANDS =      -913.57171319
  atomic energy  EATOM  =     39329.21466429
  ---------------------------------------------------
  free energy    TOTEN  =      -303.05887360 eV

  energy without entropy =     -302.59215129  energy(sigma->0) =     -302.82551244


--------------------------------------------------------------------------------------------------------




--------------------------------------- Iteration      1(   5)  ---------------------------------------


    TRIAL :  cpu time      9.2863: real time      9.3787
    CORREC:  cpu time      0.0019: real time      0.0024
    CHARGE:  cpu time      0.2966: real time      0.2994
    --------------------------------------------
      LOOP:  cpu time      9.5857: real time      9.6814

 eigenvalue-minimisations  : 10592
 total energy-change (2. order) :-0.2907487E+00  (-0.2886287E+00)
 number of electron     540.0000017 magnetization 
 augmentation part      158.6692756 magnetization 

 DIPCOR: dipole corrections for dipol
 direction  3 min pos     1,
 dipolmoment           0.000000      0.000000      0.000000 electrons x Angstroem
 Tr[quadrupol]     -6330.394738

 energy correction for charged system         0.000000 eV
 dipol+quadrupol energy correction           -0.000000 eV
 added-field ion interaction         -0.000000 eV  (added to PSCEN)


 Free energy of the ion-electron system (eV)
  ---------------------------------------------------
  alpha Z        PSCENC =      1293.09676753
  Ewald energy   TEWEN  =    404356.23868338
  -Hartree energ DENC   =   -446114.02156558
  -exchange      EXHF   =         0.00000000
  -V(xc)+E(xc)   XCENC  =       167.07643208
  PAW double counting   =     37622.12132287   -36042.74674266
  entropy T*S    EENTRO =        -0.46744872
  eigenvalues    EBANDS =      -913.86173545
  atomic energy  EATOM  =     39329.21466429
  ---------------------------------------------------
  free energy    TOTEN  =      -303.34962227 eV

  energy without entropy =     -302.88217355  energy(sigma->0) =     -303.11589791


--------------------------------------------------------------------------------------------------------




--------------------------------------- Iteration      1(   6)  ---------------------------------------


    POTLOK:  cpu time      0.0599: real time      0.0604
    SETDIJ:  cpu time      0.3787: real time      0.3814
    TRIAL :  cpu time      4.0333: real time      4.0787
    CORREC:  cpu time      1.6535: real time      1.6710
    CHARGE:  cpu time      0.2685: real time      0.2705
    --------------------------------------------
      LOOP:  cpu time      6.4420: real time      6.5121

 eigenvalue-minimisations  :     0
 total energy-change (2. order) : 0.7770926E+02  (-0.6481256E+02)
 number of electron     540.0000017 magnetization 
 augmentation part      160.0089814 magnetization 

 DIPCOR: dipole corrections for dipol
 direction  3 min pos     1,
 dipolmoment           0.000000      0.000000      0.176856 electrons x Angstroem
 Tr[quadrupol]     -7337.532040

 energy correction for charged system         0.000000 eV
 dipol+quadrupol energy correction           -0.001320 eV
 added-field ion interaction          0.000000 eV  (added to PSCEN)


 Free energy of the ion-electron system (eV)
  ---------------------------------------------------
  alpha Z        PSCENC =      1293.09676739
  Ewald energy   TEWEN  =    404356.23868338
  -Hartree energ DENC   =   -440476.61867816
  -exchange      EXHF   =         0.00000000
  -V(xc)+E(xc)   XCENC  =       134.10664033
  PAW double counting   =     47709.87222567   -46308.95300656
  entropy T*S    EENTRO =        -0.48421800
  eigenvalues    EBANDS =     -6262.13021036
  atomic energy  EATOM  =     39329.21466429
  ---------------------------------------------------
  free energy    TOTEN  =      -225.64036275 eV

  energy without entropy =     -225.15614475  energy(sigma->0) =     -225.39825375


--------------------------------------------------------------------------------------------------------




--------------------------------------- Iteration      1(   7)  ---------------------------------------


    POTLOK:  cpu time      0.0589: real time      0.0594
    SETDIJ:  cpu time      0.2296: real time      0.2316
    TRIAL :  cpu time      4.0334: real time      4.0777
    CORREC:  cpu time      1.6531: real time      1.6688
    CHARGE:  cpu time      0.2675: real time      0.2696
    --------------------------------------------
      LOOP:  cpu time      6.2460: real time      6.3107

 eigenvalue-minimisations  :     0
 total energy-change (2. order) :-0.2555589E+02  (-0.2591194E+02)
 number of electron     540.0000017 magnetization 
 augmentation part      160.5730855 magnetization 

 DIPCOR: dipole corrections for dipol
 direction  3 min pos     1,
 dipolmoment           0.000000      0.000000     -0.279382 electrons x Angstroem
 Tr[quadrupol]     -5643.353504

 energy correction for charged system         0.000000 eV
 dipol+quadrupol energy correction           -0.003294 eV
 added-field ion interaction         -0.000000 eV  (added to PSCEN)


 Free energy of the ion-electron system (eV)
  ---------------------------------------------------
  alpha Z        PSCENC =      1293.09675999
  Ewald energy   TEWEN  =    404356.23868338
  -Hartree energ DENC   =   -447199.57974029
  -exchange      EXHF   =         0.00000000
  -V(xc)+E(xc)   XCENC  =       137.03058614
  PAW double counting   =     47824.36445137   -46420.01353998
  entropy T*S    EENTRO =        -0.46539837
  eigenvalues    EBANDS =       428.93610368
  atomic energy  EATOM  =     39329.21466429
  ---------------------------------------------------
  free energy    TOTEN  =      -251.19624943 eV

  energy without entropy =     -250.73085106  energy(sigma->0) =     -250.96355024


--------------------------------------------------------------------------------------------------------




--------------------------------------- Iteration      1(   8)  ---------------------------------------


    POTLOK:  cpu time      0.0594: real time      0.0600
    SETDIJ:  cpu time      0.2308: real time      0.2326
    TRIAL :  cpu time      4.0544: real time      4.0981
    CORREC:  cpu time      1.6599: real time      1.6776
    CHARGE:  cpu time      0.2686: real time      0.2705
    --------------------------------------------
      LOOP:  cpu time      6.2767: real time      6.3426

 eigenvalue-minimisations  :     0
 total energy-change (2. order) :-0.1764072E+02  (-0.5631928E+01)
 number of electron     540.0000017 magnetization 
 augmentation part      161.9784787 magnetization 

 DIPCOR: dipole corrections for dipol
 direction  3 min pos     1,
 dipolmoment           0.000000      0.000000      5.505315 electrons x Angstroem
 Tr[quadrupol]     -6511.105788

 energy correction for charged system         0.000000 eV
 dipol+quadrupol energy correction           -1.279246 eV
 added-field ion interaction         -0.000000 eV  (added to PSCEN)


 Free energy of the ion-electron system (eV)
  ---------------------------------------------------
  alpha Z        PSCENC =      1293.09654539
  Ewald energy   TEWEN  =    404356.23868338
  -Hartree energ DENC   =   -443812.41334111
  -exchange      EXHF   =         0.00000000
  -V(xc)+E(xc)   XCENC  =       137.60868392
  PAW double counting   =     47666.03503789   -46260.06664587
  entropy T*S    EENTRO =        -0.47600751
  eigenvalues    EBANDS =     -2978.08520026
  atomic energy  EATOM  =     39329.21466429
  ---------------------------------------------------
  free energy    TOTEN  =      -268.83697074 eV

  energy without entropy =     -268.36096322  energy(sigma->0) =     -268.59896698


--------------------------------------------------------------------------------------------------------




--------------------------------------- Iteration      1(   9)  ---------------------------------------


    POTLOK:  cpu time      0.0589: real time      0.0594
    SETDIJ:  cpu time      0.2309: real time      0.2328
    TRIAL :  cpu time      4.0405: real time      4.1484
    CORREC:  cpu time      1.6532: real time      1.6688
    CHARGE:  cpu time      0.2661: real time      0.2681
    --------------------------------------------
      LOOP:  cpu time      6.2521: real time      6.3802

 eigenvalue-minimisations  :     0
 total energy-change (2. order) :-0.6802139E+01  (-0.7842336E+00)
 number of electron     540.0000017 magnetization 
 augmentation part      162.3295423 magnetization 

 DIPCOR: dipole corrections for dipol
 direction  3 min pos     1,
 dipolmoment           0.000000      0.000000    -39.627453 electrons x Angstroem
 Tr[quadrupol]     -6334.129182

 energy correction for charged system         0.000000 eV
 dipol+quadrupol energy correction          -66.279928 eV
 added-field ion interaction          0.000000 eV  (added to PSCEN)


 Free energy of the ion-electron system (eV)
  ---------------------------------------------------
  alpha Z        PSCENC =      1293.07293231
  Ewald energy   TEWEN  =    404356.23868338
  -Hartree energ DENC   =   -445313.96642143
  -exchange      EXHF   =         0.00000000
  -V(xc)+E(xc)   XCENC  =       140.17021638
  PAW double counting   =     47651.02135382   -46241.12619976
  entropy T*S    EENTRO =        -0.47578910
  eigenvalues    EBANDS =     -1489.78833106
  atomic energy  EATOM  =     39329.21466429
  ---------------------------------------------------
  free energy    TOTEN  =      -275.63910959 eV

  energy without entropy =     -275.16332049  energy(sigma->0) =     -275.40121504


--------------------------------------------------------------------------------------------------------




--------------------------------------- Iteration      1(  10)  ---------------------------------------


    POTLOK:  cpu time      0.0584: real time      0.0591
    SETDIJ:  cpu time      0.6207: real time      0.6271
    TRIAL :  cpu time      4.2075: real time      4.2532
    CORREC:  cpu time      1.6498: real time      1.6665
    CHARGE:  cpu time      0.2646: real time      0.2666
    --------------------------------------------
      LOOP:  cpu time      6.8048: real time      6.8764

 eigenvalue-minimisations  :     0
 total energy-change (2. order) :-0.8247476E+00  (-0.2216137E+01)
 number of electron     540.0000018 magnetization 
 augmentation part      163.7059372 magnetization 

 DIPCOR: dipole corrections for dipol
 direction  3 min pos     1,
 dipolmoment           0.000000      0.000000     36.376746 electrons x Angstroem
 Tr[quadrupol]     -6338.231273

 energy correction for charged system         0.000000 eV
 dipol+quadrupol energy correction          -55.851832 eV
 added-field ion interaction          0.000000 eV  (added to PSCEN)


 Free energy of the ion-electron system (eV)
  ---------------------------------------------------
  alpha Z        PSCENC =      1293.00042464
  Ewald energy   TEWEN  =    404356.23868338
  -Hartree energ DENC   =   -445321.65161726
  -exchange      EXHF   =         0.00000000
  -V(xc)+E(xc)   XCENC  =       140.76878214
  PAW double counting   =     47640.51760976   -46229.60678865
  entropy T*S    EENTRO =        -0.47414454
  eigenvalues    EBANDS =     -1484.46982639
  atomic energy  EATOM  =     39329.21466429
  ---------------------------------------------------
  free energy    TOTEN  =      -276.46385720 eV

  energy without entropy =     -275.98971266  energy(sigma->0) =     -276.22678493


--------------------------------------------------------------------------------------------------------




--------------------------------------- Iteration      1(  11)  ---------------------------------------


    POTLOK:  cpu time      0.0587: real time      0.0593
    SETDIJ:  cpu time      0.2285: real time      0.2316
    TRIAL :  cpu time      4.0297: real time      4.0728
    CORREC:  cpu time      1.6521: real time      1.6681
    CHARGE:  cpu time      0.2641: real time      0.2660
    --------------------------------------------
      LOOP:  cpu time      6.2758: real time      6.3407

 eigenvalue-minimisations  :     0
 total energy-change (2. order) :-0.3546578E+01  (-0.2791229E+00)
 number of electron     540.0000018 magnetization 
 augmentation part      163.7714277 magnetization 

 DIPCOR: dipole corrections for dipol
 direction  3 min pos     1,
 dipolmoment           0.000000      0.000000     54.525773 electrons x Angstroem
 Tr[quadrupol]     -6377.228218

 energy correction for charged system         0.000000 eV
 dipol+quadrupol energy correction         -125.485452 eV
 added-field ion interaction         -0.000000 eV  (added to PSCEN)


 Free energy of the ion-electron system (eV)
  ---------------------------------------------------
  alpha Z        PSCENC =      1293.04721128
  Ewald energy   TEWEN  =    404356.23868338
  -Hartree energ DENC   =   -445175.67215525
  -exchange      EXHF   =         0.00000000
  -V(xc)+E(xc)   XCENC  =       143.11024887
  PAW double counting   =     47614.02515481   -46199.09552043
  entropy T*S    EENTRO =        -0.47432964
  eigenvalues    EBANDS =     -1640.40457718
  atomic energy  EATOM  =     39329.21466429
  ---------------------------------------------------
  free energy    TOTEN  =      -280.01043477 eV

  energy without entropy =     -279.53610513  energy(sigma->0) =     -279.77326995


--------------------------------------------------------------------------------------------------------




--------------------------------------- Iteration      1(  12)  ---------------------------------------


    POTLOK:  cpu time      0.0594: real time      0.0599
    SETDIJ:  cpu time      0.2314: real time      0.2334
    TRIAL :  cpu time      4.0381: real time      4.0823
    CORREC:  cpu time      1.6480: real time      1.6636
    CHARGE:  cpu time      0.2634: real time      0.2655
    --------------------------------------------
      LOOP:  cpu time      6.2445: real time      6.3088

 eigenvalue-minimisations  :     0
 total energy-change (2. order) :-0.3010685E+00  (-0.1594635E+01)
 number of electron     540.0000018 magnetization 
 augmentation part      165.2437518 magnetization 

 DIPCOR: dipole corrections for dipol
 direction  3 min pos     1,
 dipolmoment           0.000000      0.000000      2.479530 electrons x Angstroem
 Tr[quadrupol]     -6360.094898

 energy correction for charged system         0.000000 eV
 dipol+quadrupol energy correction           -0.259495 eV
 added-field ion interaction          0.000000 eV  (added to PSCEN)


 Free energy of the ion-electron system (eV)
  ---------------------------------------------------
  alpha Z        PSCENC =      1293.09341877
  Ewald energy   TEWEN  =    404356.23868338
  -Hartree energ DENC   =   -445208.78414996
  -exchange      EXHF   =         0.00000000
  -V(xc)+E(xc)   XCENC  =       143.21947425
  PAW double counting   =     47614.68569665   -46199.55180869
  entropy T*S    EENTRO =        -0.47733600
  eigenvalues    EBANDS =     -1607.95315227
  atomic energy  EATOM  =     39329.21466429
  ---------------------------------------------------
  free energy    TOTEN  =      -280.31150323 eV

  energy without entropy =     -279.83416723  energy(sigma->0) =     -280.07283523


--------------------------------------------------------------------------------------------------------




--------------------------------------- Iteration      1(  13)  ---------------------------------------


    POTLOK:  cpu time      0.0585: real time      0.0591
    SETDIJ:  cpu time      0.2319: real time      0.2339
    TRIAL :  cpu time      4.0369: real time      4.0826
    CORREC:  cpu time      1.7309: real time      1.7476
    CHARGE:  cpu time      0.2641: real time      0.2660
    --------------------------------------------
      LOOP:  cpu time      6.3249: real time      6.3918

 eigenvalue-minimisations  :     0
 total energy-change (2. order) :-0.1608960E+01  (-0.6090395E+00)
 number of electron     540.0000018 magnetization 
 augmentation part      165.8488486 magnetization 

 DIPCOR: dipole corrections for dipol
 direction  3 min pos     1,
 dipolmoment           0.000000      0.000000    -55.549612 electrons x Angstroem
 Tr[quadrupol]     -6430.243020

 energy correction for charged system         0.000000 eV
 dipol+quadrupol energy correction         -130.242217 eV
 added-field ion interaction         -0.000000 eV  (added to PSCEN)


 Free energy of the ion-electron system (eV)
  ---------------------------------------------------
  alpha Z        PSCENC =      1293.02198862
  Ewald energy   TEWEN  =    404356.23868338
  -Hartree energ DENC   =   -445836.35523278
  -exchange      EXHF   =         0.00000000
  -V(xc)+E(xc)   XCENC  =       145.68856220
  PAW double counting   =     47649.77267058   -46230.03089142
  entropy T*S    EENTRO =        -0.47860898
  eigenvalues    EBANDS =      -988.99357206
  atomic energy  EATOM  =     39329.21466429
  ---------------------------------------------------
  free energy    TOTEN  =      -281.92046318 eV

  energy without entropy =     -281.44185420  energy(sigma->0) =     -281.68115869


--------------------------------------------------------------------------------------------------------




--------------------------------------- Iteration      1(  14)  ---------------------------------------


    POTLOK:  cpu time      0.0596: real time      0.0602
    SETDIJ:  cpu time      0.2301: real time      0.2319
    TRIAL :  cpu time      4.0803: real time      4.1235
    CORREC:  cpu time      1.7413: real time      1.7576
    CHARGE:  cpu time      0.2650: real time      0.2671
    --------------------------------------------
      LOOP:  cpu time      6.3781: real time      6.4424

 eigenvalue-minimisations  :     0
 total energy-change (2. order) :-0.6713308E+00  (-0.1497372E+01)
 number of electron     540.0000018 magnetization 
 augmentation part      167.3410783 magnetization 

 DIPCOR: dipole corrections for dipol
 direction  3 min pos     1,
 dipolmoment           0.000000      0.000000      0.284053 electrons x Angstroem
 Tr[quadrupol]     -6246.289636

 energy correction for charged system         0.000000 eV
 dipol+quadrupol energy correction           -0.003406 eV
 added-field ion interaction          0.000000 eV  (added to PSCEN)


 Free energy of the ion-electron system (eV)
  ---------------------------------------------------
  alpha Z        PSCENC =      1293.09159334
  Ewald energy   TEWEN  =    404356.23868338
  -Hartree energ DENC   =   -445950.24589041
  -exchange      EXHF   =         0.00000000
  -V(xc)+E(xc)   XCENC  =       146.70337278
  PAW double counting   =     47670.04585511   -46248.38897794
  entropy T*S    EENTRO =        -0.48920956
  eigenvalues    EBANDS =      -878.77248554
  atomic energy  EATOM  =     39329.21466429
  ---------------------------------------------------
  free energy    TOTEN  =      -282.59179397 eV

  energy without entropy =     -282.10258442  energy(sigma->0) =     -282.34718920


--------------------------------------------------------------------------------------------------------




--------------------------------------- Iteration      1(  15)  ---------------------------------------


    POTLOK:  cpu time      0.0589: real time      0.0595
    SETDIJ:  cpu time      0.2344: real time      0.2362
    TRIAL :  cpu time      4.0335: real time      4.0778
    CORREC:  cpu time      1.6515: real time      1.6681
    CHARGE:  cpu time      0.2651: real time      0.2670
    --------------------------------------------
      LOOP:  cpu time      6.2470: real time      6.3123

 eigenvalue-minimisations  :     0
 total energy-change (2. order) :-0.1368010E+01  (-0.4326554E+00)
 number of electron     540.0000018 magnetization 
 augmentation part      167.8569724 magnetization 

 DIPCOR: dipole corrections for dipol
 direction  3 min pos     1,
 dipolmoment           0.000000      0.000000     56.978894 electrons x Angstroem
 Tr[quadrupol]     -6308.907079

 energy correction for charged system         0.000000 eV
 dipol+quadrupol energy correction         -137.030659 eV
 added-field ion interaction          0.000000 eV  (added to PSCEN)


 Free energy of the ion-electron system (eV)
  ---------------------------------------------------
  alpha Z        PSCENC =      1292.97084055
  Ewald energy   TEWEN  =    404356.23868338
  -Hartree energ DENC   =   -445481.20466211
  -exchange      EXHF   =         0.00000000
  -V(xc)+E(xc)   XCENC  =       149.16203450
  PAW double counting   =     47726.28577274   -46299.73851106
  entropy T*S    EENTRO =        -0.50488827
  eigenvalues    EBANDS =     -1356.39941627
  atomic energy  EATOM  =     39329.21466429
  ---------------------------------------------------
  free energy    TOTEN  =      -283.95980354 eV

  energy without entropy =     -283.45491527  energy(sigma->0) =     -283.70735940


--------------------------------------------------------------------------------------------------------




--------------------------------------- Iteration      1(  16)  ---------------------------------------


    POTLOK:  cpu time      0.0586: real time      0.0593
    SETDIJ:  cpu time      0.2320: real time      0.2339
    TRIAL :  cpu time      4.0324: real time      4.0756
    CORREC:  cpu time      1.6508: real time      1.6660
    CHARGE:  cpu time      0.2646: real time      0.2665
    --------------------------------------------
      LOOP:  cpu time      6.2417: real time      6.3047

 eigenvalue-minimisations  :     0
 total energy-change (2. order) :-0.3370057E+00  (-0.2910195E-01)
 number of electron     540.0000018 magnetization 
 augmentation part      167.9011848 magnetization 

 DIPCOR: dipole corrections for dipol
 direction  3 min pos     1,
 dipolmoment           0.000000      0.000000     16.625989 electrons x Angstroem
 Tr[quadrupol]     -6369.494376

 energy correction for charged system         0.000000 eV
 dipol+quadrupol energy correction          -11.667148 eV
 added-field ion interaction         -0.000000 eV  (added to PSCEN)


 Free energy of the ion-electron system (eV)
  ---------------------------------------------------
  alpha Z        PSCENC =      1293.09493989
  Ewald energy   TEWEN  =    404356.23868338
  -Hartree energ DENC   =   -445303.90698248
  -exchange      EXHF   =         0.00000000
  -V(xc)+E(xc)   XCENC  =       150.02587076
  PAW double counting   =     47754.16794718   -46325.91169857
  entropy T*S    EENTRO =        -0.50648800
  eigenvalues    EBANDS =     -1536.71534542
  atomic energy  EATOM  =     39329.21466429
  ---------------------------------------------------
  free energy    TOTEN  =      -284.29680925 eV

  energy without entropy =     -283.79032125  energy(sigma->0) =     -284.04356525


--------------------------------------------------------------------------------------------------------




--------------------------------------- Iteration      1(  17)  ---------------------------------------


    POTLOK:  cpu time      0.0594: real time      0.0600
    SETDIJ:  cpu time      0.2302: real time      0.2324
    TRIAL :  cpu time      4.0280: real time      4.0837
    CORREC:  cpu time      1.6492: real time      1.6648
    CHARGE:  cpu time      0.2623: real time      0.2643
    --------------------------------------------
      LOOP:  cpu time      6.2326: real time      6.3087

 eigenvalue-minimisations  :     0
 total energy-change (2. order) :-0.4004719E-01  (-0.7894693E-01)
 number of electron     540.0000018 magnetization 
 augmentation part      167.9751453 magnetization 

 DIPCOR: dipole corrections for dipol
 direction  3 min pos     1,
 dipolmoment           0.000000      0.000000      5.343301 electrons x Angstroem
 Tr[quadrupol]     -6405.676496

 energy correction for charged system         0.000000 eV
 dipol+quadrupol energy correction           -1.205061 eV
 added-field ion interaction          0.000000 eV  (added to PSCEN)


 Free energy of the ion-electron system (eV)
  ---------------------------------------------------
  alpha Z        PSCENC =      1293.09601852
  Ewald energy   TEWEN  =    404356.23868338
  -Hartree energ DENC   =   -445337.88411554
  -exchange      EXHF   =         0.00000000
  -V(xc)+E(xc)   XCENC  =       150.10130595
  PAW double counting   =     47757.99793624   -46329.56942549
  entropy T*S    EENTRO =        -0.50922215
  eigenvalues    EBANDS =     -1503.02543579
  atomic energy  EATOM  =     39329.21466429
  ---------------------------------------------------
  free energy    TOTEN  =      -284.33685644 eV

  energy without entropy =     -283.82763429  energy(sigma->0) =     -284.08224537


--------------------------------------------------------------------------------------------------------




--------------------------------------- Iteration      1(  18)  ---------------------------------------


    POTLOK:  cpu time      0.0593: real time      0.0600
    SETDIJ:  cpu time      0.2392: real time      0.2412
    TRIAL :  cpu time      4.2698: real time      4.3567
    CORREC:  cpu time      1.8783: real time      1.9145
    CHARGE:  cpu time      0.2637: real time      0.2657
    --------------------------------------------
      LOOP:  cpu time      6.7145: real time      6.8424

 eigenvalue-minimisations  :     0
 total energy-change (2. order) :-0.1003356E+00  (-0.3068041E-01)
 number of electron     540.0000018 magnetization 
 augmentation part      168.0014395 magnetization 

 DIPCOR: dipole corrections for dipol
 direction  3 min pos     1,
 dipolmoment           0.000000      0.000000    -14.263232 electrons x Angstroem
 Tr[quadrupol]     -6423.566750

 energy correction for charged system         0.000000 eV
 dipol+quadrupol energy correction           -8.586687 eV
 added-field ion interaction          0.000000 eV  (added to PSCEN)


 Free energy of the ion-electron system (eV)
  ---------------------------------------------------
  alpha Z        PSCENC =      1293.09099304
  Ewald energy   TEWEN  =    404356.23868338
  -Hartree energ DENC   =   -445490.91154081
  -exchange      EXHF   =         0.00000000
  -V(xc)+E(xc)   XCENC  =       150.22975893
  PAW double counting   =     47766.69271538   -46337.92217007
  entropy T*S    EENTRO =        -0.51018794
  eigenvalues    EBANDS =     -1350.56107400
  atomic energy  EATOM  =     39329.21466429
  ---------------------------------------------------
  free energy    TOTEN  =      -284.43719200 eV

  energy without entropy =     -283.92700407  energy(sigma->0) =     -284.18209804


--------------------------------------------------------------------------------------------------------




--------------------------------------- Iteration      1(  19)  ---------------------------------------


    POTLOK:  cpu time      0.0595: real time      0.0602
    SETDIJ:  cpu time      0.2302: real time      0.2320
    TRIAL :  cpu time      5.1571: real time      5.2748
    CORREC:  cpu time      3.5323: real time      3.5884
    CHARGE:  cpu time      0.3260: real time      0.3317
    --------------------------------------------
      LOOP:  cpu time      9.3086: real time      9.4907

 eigenvalue-minimisations  :     0
 total energy-change (2. order) :-0.4222598E-01  (-0.1935620E-01)
 number of electron     540.0000018 magnetization 
 augmentation part      167.9937359 magnetization 

 DIPCOR: dipole corrections for dipol
 direction  3 min pos     1,
 dipolmoment           0.000000      0.000000     -3.923203 electrons x Angstroem
 Tr[quadrupol]     -6328.891695

 energy correction for charged system         0.000000 eV
 dipol+quadrupol energy correction           -0.649638 eV
 added-field ion interaction         -0.000000 eV  (added to PSCEN)


 Free energy of the ion-electron system (eV)
  ---------------------------------------------------
  alpha Z        PSCENC =      1293.09626447
  Ewald energy   TEWEN  =    404356.23868338
  -Hartree energ DENC   =   -445559.13029248
  -exchange      EXHF   =         0.00000000
  -V(xc)+E(xc)   XCENC  =       150.27420367
  PAW double counting   =     47770.07130311   -46341.15580385
  entropy T*S    EENTRO =        -0.50969884
  eigenvalues    EBANDS =     -1282.57825263
  atomic energy  EATOM  =     39329.21466429
  ---------------------------------------------------
  free energy    TOTEN  =      -284.47941799 eV

  energy without entropy =     -283.96971914  energy(sigma->0) =     -284.22456856


--------------------------------------------------------------------------------------------------------




--------------------------------------- Iteration      1(  20)  ---------------------------------------


    POTLOK:  cpu time      0.0591: real time      0.0633
    SETDIJ:  cpu time      0.3561: real time      0.3592
    TRIAL :  cpu time      4.1862: real time      4.2496
    CORREC:  cpu time      1.6689: real time      1.6898
    CHARGE:  cpu time      0.2627: real time      0.2648
    --------------------------------------------
      LOOP:  cpu time      6.5574: real time      6.6512

 eigenvalue-minimisations  :     0
 total energy-change (2. order) :-0.1876575E-01  (-0.2025901E+00)
 number of electron     540.0000018 magnetization 
 augmentation part      167.8780781 magnetization 

 DIPCOR: dipole corrections for dipol
 direction  3 min pos     1,
 dipolmoment           0.000000      0.000000      0.288430 electrons x Angstroem
 Tr[quadrupol]     -6328.603031

 energy correction for charged system         0.000000 eV
 dipol+quadrupol energy correction           -0.003511 eV
 added-field ion interaction         -0.000000 eV  (added to PSCEN)


 Free energy of the ion-electron system (eV)
  ---------------------------------------------------
  alpha Z        PSCENC =      1293.09383242
  Ewald energy   TEWEN  =    404356.23868338
  -Hartree energ DENC   =   -445555.38055976
  -exchange      EXHF   =         0.00000000
  -V(xc)+E(xc)   XCENC  =       150.25210021
  PAW double counting   =     47769.03456323   -46340.06750290
  entropy T*S    EENTRO =        -0.50678453
  eigenvalues    EBANDS =     -1286.37426576
  atomic energy  EATOM  =     39329.21466429
  ---------------------------------------------------
  free energy    TOTEN  =      -284.49818374 eV

  energy without entropy =     -283.99139920  energy(sigma->0) =     -284.24479147


--------------------------------------------------------------------------------------------------------




--------------------------------------- Iteration      1(  21)  ---------------------------------------


    POTLOK:  cpu time      0.0588: real time      0.0594
    SETDIJ:  cpu time      0.2318: real time      0.2338
    TRIAL :  cpu time      4.5627: real time      4.6892
    CORREC:  cpu time      1.7504: real time      1.7899
    CHARGE:  cpu time      0.2638: real time      0.2663
    --------------------------------------------
      LOOP:  cpu time      6.8709: real time      7.0420

 eigenvalue-minimisations  :     0
 total energy-change (2. order) :-0.1986329E+00  (-0.9781701E-01)
 number of electron     540.0000018 magnetization 
 augmentation part      167.8328381 magnetization 

 DIPCOR: dipole corrections for dipol
 direction  3 min pos     1,
 dipolmoment           0.000000      0.000000      1.169607 electrons x Angstroem
 Tr[quadrupol]     -6344.844942

 energy correction for charged system         0.000000 eV
 dipol+quadrupol energy correction           -0.057739 eV
 added-field ion interaction         -0.000000 eV  (added to PSCEN)


 Free energy of the ion-electron system (eV)
  ---------------------------------------------------
  alpha Z        PSCENC =      1293.09674985
  Ewald energy   TEWEN  =    404356.23868338
  -Hartree energ DENC   =   -445526.99422845
  -exchange      EXHF   =         0.00000000
  -V(xc)+E(xc)   XCENC  =       149.92021480
  PAW double counting   =     47755.65737924   -46325.88345014
  entropy T*S    EENTRO =        -0.50643457
  eigenvalues    EBANDS =     -1315.44004512
  atomic energy  EATOM  =     39329.21466429
  ---------------------------------------------------
  free energy    TOTEN  =      -284.69681668 eV

  energy without entropy =     -284.19038212  energy(sigma->0) =     -284.44359940


--------------------------------------------------------------------------------------------------------




--------------------------------------- Iteration      1(  22)  ---------------------------------------


    POTLOK:  cpu time      0.0589: real time      0.0614
    SETDIJ:  cpu time      0.2531: real time      0.2586
    TRIAL :  cpu time      4.1138: real time      4.1766
    CORREC:  cpu time      1.7173: real time      1.7499
    CHARGE:  cpu time      0.2785: real time      0.2808
    --------------------------------------------
      LOOP:  cpu time      6.4235: real time      6.5290

 eigenvalue-minimisations  :     0
 total energy-change (2. order) :-0.9854767E-01  (-0.3366817E-01)
 number of electron     540.0000018 magnetization 
 augmentation part      167.8188530 magnetization 

 DIPCOR: dipole corrections for dipol
 direction  3 min pos     1,
 dipolmoment           0.000000      0.000000     -8.446468 electrons x Angstroem
 Tr[quadrupol]     -6350.508304

 energy correction for charged system         0.000000 eV
 dipol+quadrupol energy correction           -3.011203 eV
 added-field ion interaction          0.000000 eV  (added to PSCEN)


 Free energy of the ion-electron system (eV)
  ---------------------------------------------------
  alpha Z        PSCENC =      1293.09262778
  Ewald energy   TEWEN  =    404356.23868338
  -Hartree energ DENC   =   -445679.11973917
  -exchange      EXHF   =         0.00000000
  -V(xc)+E(xc)   XCENC  =       149.77014732
  PAW double counting   =     47750.86146161   -46320.50344482
  entropy T*S    EENTRO =        -0.50644186
  eigenvalues    EBANDS =     -1163.84333018
  atomic energy  EATOM  =     39329.21466429
  ---------------------------------------------------
  free energy    TOTEN  =      -284.79536436 eV

  energy without entropy =     -284.28892250  energy(sigma->0) =     -284.54214343


--------------------------------------------------------------------------------------------------------




--------------------------------------- Iteration      1(  23)  ---------------------------------------


    POTLOK:  cpu time      0.0593: real time      0.0599
    SETDIJ:  cpu time      0.2290: real time      0.2308
    TRIAL :  cpu time      4.2143: real time      4.2982
    CORREC:  cpu time      1.6861: real time      1.7157
    CHARGE:  cpu time      0.3243: real time      0.3299
    --------------------------------------------
      LOOP:  cpu time      6.5167: real time      6.6381

 eigenvalue-minimisations  :     0
 total energy-change (2. order) :-0.3839464E-01  (-0.2022276E+00)
 number of electron     540.0000018 magnetization 
 augmentation part      167.7593360 magnetization 

 DIPCOR: dipole corrections for dipol
 direction  3 min pos     1,
 dipolmoment           0.000000      0.000000     -0.719568 electrons x Angstroem
 Tr[quadrupol]     -6321.520455

 energy correction for charged system         0.000000 eV
 dipol+quadrupol energy correction           -0.021854 eV
 added-field ion interaction          0.000000 eV  (added to PSCEN)


 Free energy of the ion-electron system (eV)
  ---------------------------------------------------
  alpha Z        PSCENC =      1293.09631407
  Ewald energy   TEWEN  =    404356.23868338
  -Hartree energ DENC   =   -445705.10495591
  -exchange      EXHF   =         0.00000000
  -V(xc)+E(xc)   XCENC  =       149.71660675
  PAW double counting   =     47747.95283401   -46317.36642593
  entropy T*S    EENTRO =        -0.50815985
  eigenvalues    EBANDS =     -1138.07503779
  atomic energy  EATOM  =     39329.21466429
  ---------------------------------------------------
  free energy    TOTEN  =      -284.83375900 eV

  energy without entropy =     -284.32559915  energy(sigma->0) =     -284.57967907


--------------------------------------------------------------------------------------------------------




--------------------------------------- Iteration      1(  24)  ---------------------------------------


    POTLOK:  cpu time      0.0593: real time      0.0599
    SETDIJ:  cpu time      0.4156: real time      0.4210
    TRIAL :  cpu time      4.6005: real time      4.6931
    CORREC:  cpu time      1.6791: real time      1.7038
    CHARGE:  cpu time      0.2641: real time      0.2665
    --------------------------------------------
      LOOP:  cpu time      7.0210: real time      7.1467

 eigenvalue-minimisations  :     0
 total energy-change (2. order) :-0.2042414E+00  (-0.2387670E-01)
 number of electron     540.0000018 magnetization 
 augmentation part      167.7555206 magnetization 

 DIPCOR: dipole corrections for dipol
 direction  3 min pos     1,
 dipolmoment           0.000000      0.000000     14.443539 electrons x Angstroem
 Tr[quadrupol]     -6303.826227

 energy correction for charged system         0.000000 eV
 dipol+quadrupol energy correction           -8.805154 eV
 added-field ion interaction          0.000000 eV  (added to PSCEN)


 Free energy of the ion-electron system (eV)
  ---------------------------------------------------
  alpha Z        PSCENC =      1293.08822241
  Ewald energy   TEWEN  =    404356.23868338
  -Hartree energ DENC   =   -445459.26257122
  -exchange      EXHF   =         0.00000000
  -V(xc)+E(xc)   XCENC  =       149.40027218
  PAW double counting   =     47716.01838088   -46283.92222540
  entropy T*S    EENTRO =        -0.50893994
  eigenvalues    EBANDS =     -1385.30526703
  atomic energy  EATOM  =     39329.21466429
  ---------------------------------------------------
  free energy    TOTEN  =      -285.03800036 eV

  energy without entropy =     -284.52906042  energy(sigma->0) =     -284.78353039


--------------------------------------------------------------------------------------------------------




--------------------------------------- Iteration      1(  25)  ---------------------------------------


    POTLOK:  cpu time      0.0588: real time      0.0594
    SETDIJ:  cpu time      0.2303: real time      0.2320
    TRIAL :  cpu time      6.1465: real time      6.2297
    CORREC:  cpu time      3.2453: real time      3.2876
    CHARGE:  cpu time      0.2944: real time      0.3015
    --------------------------------------------
      LOOP:  cpu time      9.9787: real time     10.1138

 eigenvalue-minimisations  :     0
 total energy-change (2. order) :-0.3117425E-01  (-0.7050962E-02)
 number of electron     540.0000018 magnetization 
 augmentation part      167.7608694 magnetization 

 DIPCOR: dipole corrections for dipol
 direction  3 min pos     1,
 dipolmoment           0.000000      0.000000      5.631855 electrons x Angstroem
 Tr[quadrupol]     -6332.622952

 energy correction for charged system         0.000000 eV
 dipol+quadrupol energy correction           -1.338729 eV
 added-field ion interaction         -0.000000 eV  (added to PSCEN)


 Free energy of the ion-electron system (eV)
  ---------------------------------------------------
  alpha Z        PSCENC =      1293.09604017
  Ewald energy   TEWEN  =    404356.23868338
  -Hartree energ DENC   =   -445433.13904843
  -exchange      EXHF   =         0.00000000
  -V(xc)+E(xc)   XCENC  =       149.36781995
  PAW double counting   =     47712.23738900   -46279.92147234
  entropy T*S    EENTRO =        -0.50919873
  eigenvalues    EBANDS =     -1411.65431068
  atomic energy  EATOM  =     39329.21466429
  ---------------------------------------------------
  free energy    TOTEN  =      -285.06917461 eV

  energy without entropy =     -284.55997589  energy(sigma->0) =     -284.81457525


--------------------------------------------------------------------------------------------------------




--------------------------------------- Iteration      1(  26)  ---------------------------------------


    POTLOK:  cpu time      0.0769: real time      0.0781
    SETDIJ:  cpu time      0.2453: real time      0.2546
    TRIAL :  cpu time      4.0586: real time      4.1037
    CORREC:  cpu time      1.6502: real time      1.6660
    CHARGE:  cpu time      0.2622: real time      0.2645
    --------------------------------------------
      LOOP:  cpu time      6.4936: real time      6.5685

 eigenvalue-minimisations  :     0
 total energy-change (2. order) :-0.7275755E-02  (-0.1488426E-01)
 number of electron     540.0000018 magnetization 
 augmentation part      167.8002875 magnetization 

 DIPCOR: dipole corrections for dipol
 direction  3 min pos     1,
 dipolmoment           0.000000      0.000000      1.196939 electrons x Angstroem
 Tr[quadrupol]     -6338.927937

 energy correction for charged system         0.000000 eV
 dipol+quadrupol energy correction           -0.060469 eV
 added-field ion interaction         -0.000000 eV  (added to PSCEN)


 Free energy of the ion-electron system (eV)
  ---------------------------------------------------
  alpha Z        PSCENC =      1293.09643413
  Ewald energy   TEWEN  =    404356.23868338
  -Hartree energ DENC   =   -445441.07873489
  -exchange      EXHF   =         0.00000000
  -V(xc)+E(xc)   XCENC  =       149.37545476
  PAW double counting   =     47711.94427428   -46279.55018485
  entropy T*S    EENTRO =        -0.51021418
  eigenvalues    EBANDS =     -1403.80784274
  atomic energy  EATOM  =     39329.21466429
  ---------------------------------------------------
  free energy    TOTEN  =      -285.07645037 eV

  energy without entropy =     -284.56623619  energy(sigma->0) =     -284.82134328


--------------------------------------------------------------------------------------------------------




--------------------------------------- Iteration      1(  27)  ---------------------------------------


    POTLOK:  cpu time      0.0581: real time      0.0586
    SETDIJ:  cpu time      0.2303: real time      0.2323
    TRIAL :  cpu time      4.1548: real time      4.2038
    CORREC:  cpu time      1.6550: real time      1.6703
    CHARGE:  cpu time      0.4073: real time      0.4104
    --------------------------------------------
      LOOP:  cpu time      6.5080: real time      6.5778

 eigenvalue-minimisations  :     0
 total energy-change (2. order) :-0.1498713E-01  (-0.9315191E-02)
 number of electron     540.0000018 magnetization 
 augmentation part      167.8295435 magnetization 

 DIPCOR: dipole corrections for dipol
 direction  3 min pos     1,
 dipolmoment           0.000000      0.000000     -4.491194 electrons x Angstroem
 Tr[quadrupol]     -6379.626265

 energy correction for charged system         0.000000 eV
 dipol+quadrupol energy correction           -0.851360 eV
 added-field ion interaction          0.000000 eV  (added to PSCEN)


 Free energy of the ion-electron system (eV)
  ---------------------------------------------------
  alpha Z        PSCENC =      1293.09364130
  Ewald energy   TEWEN  =    404356.23868338
  -Hartree energ DENC   =   -445512.04177884
  -exchange      EXHF   =         0.00000000
  -V(xc)+E(xc)   XCENC  =       149.45645467
  PAW double counting   =     47713.41792896   -46280.70326365
  entropy T*S    EENTRO =        -0.51097562
  eigenvalues    EBANDS =     -1333.25755342
  atomic energy  EATOM  =     39329.21466429
  ---------------------------------------------------
  free energy    TOTEN  =      -285.09143750 eV

  energy without entropy =     -284.58046188  energy(sigma->0) =     -284.83594969


--------------------------------------------------------------------------------------------------------




--------------------------------------- Iteration      1(  28)  ---------------------------------------


    POTLOK:  cpu time      0.0582: real time      0.0587
    SETDIJ:  cpu time      0.2309: real time      0.2331
    TRIAL :  cpu time      4.0422: real time      4.0864
    CORREC:  cpu time      1.6533: real time      1.6694
    CHARGE:  cpu time      0.2617: real time      0.2638
    --------------------------------------------
      LOOP:  cpu time      6.2496: real time      6.3146

 eigenvalue-minimisations  :     0
 total energy-change (2. order) :-0.1339081E-01  (-0.8517887E-02)
 number of electron     540.0000018 magnetization 
 augmentation part      167.8519355 magnetization 

 DIPCOR: dipole corrections for dipol
 direction  3 min pos     1,
 dipolmoment           0.000000      0.000000     -6.150571 electrons x Angstroem
 Tr[quadrupol]     -6345.878899

 energy correction for charged system         0.000000 eV
 dipol+quadrupol energy correction           -1.596690 eV
 added-field ion interaction          0.000000 eV  (added to PSCEN)


 Free energy of the ion-electron system (eV)
  ---------------------------------------------------
  alpha Z        PSCENC =      1293.09559547
  Ewald energy   TEWEN  =    404356.23868338
  -Hartree energ DENC   =   -445556.73274212
  -exchange      EXHF   =         0.00000000
  -V(xc)+E(xc)   XCENC  =       149.51711336
  PAW double counting   =     47714.44804526   -46281.50817282
  entropy T*S    EENTRO =        -0.51154058
  eigenvalues    EBANDS =     -1288.86703950
  atomic energy  EATOM  =     39329.21466429
  ---------------------------------------------------
  free energy    TOTEN  =      -285.10482831 eV

  energy without entropy =     -284.59328773  energy(sigma->0) =     -284.84905802


--------------------------------------------------------------------------------------------------------




--------------------------------------- Iteration      1(  29)  ---------------------------------------


    POTLOK:  cpu time      0.0589: real time      0.0597
    SETDIJ:  cpu time      0.2304: real time      0.2327
    TRIAL :  cpu time      4.0291: real time      4.0950
    CORREC:  cpu time      1.6705: real time      1.6863
    CHARGE:  cpu time      0.2634: real time      0.2653
    --------------------------------------------
      LOOP:  cpu time      6.2543: real time      6.3411

 eigenvalue-minimisations  :     0
 total energy-change (2. order) :-0.9472407E-02  (-0.1590186E-01)
 number of electron     540.0000018 magnetization 
 augmentation part      167.9170394 magnetization 

 DIPCOR: dipole corrections for dipol
 direction  3 min pos     1,
 dipolmoment           0.000000      0.000000     -1.956990 electrons x Angstroem
 Tr[quadrupol]     -6330.405806

 energy correction for charged system         0.000000 eV
 dipol+quadrupol energy correction           -0.161647 eV
 added-field ion interaction          0.000000 eV  (added to PSCEN)


 Free energy of the ion-electron system (eV)
  ---------------------------------------------------
  alpha Z        PSCENC =      1293.09661687
  Ewald energy   TEWEN  =    404356.23868338
  -Hartree energ DENC   =   -445576.77718845
  -exchange      EXHF   =         0.00000000
  -V(xc)+E(xc)   XCENC  =       149.56342668
  PAW double counting   =     47714.96953977   -46281.86724398
  entropy T*S    EENTRO =        -0.51316565
  eigenvalues    EBANDS =     -1269.04125869
  atomic energy  EATOM  =     39329.21466429
  ---------------------------------------------------
  free energy    TOTEN  =      -285.11430072 eV

  energy without entropy =     -284.60113507  energy(sigma->0) =     -284.85771789


--------------------------------------------------------------------------------------------------------




--------------------------------------- Iteration      1(  30)  ---------------------------------------


    POTLOK:  cpu time      0.0591: real time      0.0597
    SETDIJ:  cpu time      0.2305: real time      0.2326
    TRIAL :  cpu time      4.0739: real time      4.1230
    CORREC:  cpu time      1.6538: real time      1.6700
    CHARGE:  cpu time      0.2628: real time      0.2646
    --------------------------------------------
      LOOP:  cpu time      6.2814: real time      6.3512

 eigenvalue-minimisations  :     0
 total energy-change (2. order) :-0.1608843E-01  (-0.1526374E-01)
 number of electron     540.0000018 magnetization 
 augmentation part      167.9907471 magnetization 

 DIPCOR: dipole corrections for dipol
 direction  3 min pos     1,
 dipolmoment           0.000000      0.000000      5.714675 electrons x Angstroem
 Tr[quadrupol]     -6361.352723

 energy correction for charged system         0.000000 eV
 dipol+quadrupol energy correction           -1.378392 eV
 added-field ion interaction          0.000000 eV  (added to PSCEN)


 Free energy of the ion-electron system (eV)
  ---------------------------------------------------
  alpha Z        PSCENC =      1293.09130402
  Ewald energy   TEWEN  =    404356.23868338
  -Hartree energ DENC   =   -445578.61238610
  -exchange      EXHF   =         0.00000000
  -V(xc)+E(xc)   XCENC  =       149.69631928
  PAW double counting   =     47715.28199475   -46281.73444822
  entropy T*S    EENTRO =        -0.51523735
  eigenvalues    EBANDS =     -1267.79335489
  atomic energy  EATOM  =     39329.21466429
  ---------------------------------------------------
  free energy    TOTEN  =      -285.13038915 eV

  energy without entropy =     -284.61515179  energy(sigma->0) =     -284.87277047


--------------------------------------------------------------------------------------------------------




--------------------------------------- Iteration      1(  31)  ---------------------------------------


    POTLOK:  cpu time      0.0589: real time      0.0596
    SETDIJ:  cpu time      0.2536: real time      0.2556
    TRIAL :  cpu time      4.0562: real time      4.1008
    CORREC:  cpu time      1.6528: real time      1.6682
    CHARGE:  cpu time      0.3056: real time      0.3082
    --------------------------------------------
      LOOP:  cpu time      6.3290: real time      6.3944

 eigenvalue-minimisations  :     0
 total energy-change (2. order) :-0.2458764E-01  (-0.2307505E-01)
 number of electron     540.0000018 magnetization 
 augmentation part      167.9934911 magnetization 

 DIPCOR: dipole corrections for dipol
 direction  3 min pos     1,
 dipolmoment           0.000000      0.000000      8.285872 electrons x Angstroem
 Tr[quadrupol]     -6329.546120

 energy correction for charged system         0.000000 eV
 dipol+quadrupol energy correction           -2.897785 eV
 added-field ion interaction         -0.000000 eV  (added to PSCEN)


 Free energy of the ion-electron system (eV)
  ---------------------------------------------------
  alpha Z        PSCENC =      1293.08985917
  Ewald energy   TEWEN  =    404356.23868338
  -Hartree energ DENC   =   -445573.70136168
  -exchange      EXHF   =         0.00000000
  -V(xc)+E(xc)   XCENC  =       149.84616694
  PAW double counting   =     47715.44011304   -46281.39193214
  entropy T*S    EENTRO =        -0.51526302
  eigenvalues    EBANDS =     -1273.37593243
  atomic energy  EATOM  =     39329.21466429
  ---------------------------------------------------
  free energy    TOTEN  =      -285.15497678 eV

  energy without entropy =     -284.63971377  energy(sigma->0) =     -284.89734527


--------------------------------------------------------------------------------------------------------




--------------------------------------- Iteration      1(  32)  ---------------------------------------


    POTLOK:  cpu time      0.0580: real time      0.0587
    SETDIJ:  cpu time      0.2312: real time      0.2330
    TRIAL :  cpu time      4.2089: real time      4.2541
    CORREC:  cpu time      1.6510: real time      1.6668
    CHARGE:  cpu time      0.2617: real time      0.2637
    --------------------------------------------
      LOOP:  cpu time      6.4126: real time      6.4782

 eigenvalue-minimisations  :     0
 total energy-change (2. order) :-0.2275678E-01  (-0.9501986E-02)
 number of electron     540.0000018 magnetization 
 augmentation part      168.0540400 magnetization 

 DIPCOR: dipole corrections for dipol
 direction  3 min pos     1,
 dipolmoment           0.000000      0.000000     -0.101542 electrons x Angstroem
 Tr[quadrupol]     -6329.245274

 energy correction for charged system         0.000000 eV
 dipol+quadrupol energy correction           -0.000435 eV
 added-field ion interaction          0.000000 eV  (added to PSCEN)


 Free energy of the ion-electron system (eV)
  ---------------------------------------------------
  alpha Z        PSCENC =      1293.09676198
  Ewald energy   TEWEN  =    404356.23868338
  -Hartree energ DENC   =   -445571.28673613
  -exchange      EXHF   =         0.00000000
  -V(xc)+E(xc)   XCENC  =       149.85126653
  PAW double counting   =     47715.31084057   -46281.24793579
  entropy T*S    EENTRO =        -0.51577094
  eigenvalues    EBANDS =     -1275.84001538
  atomic energy  EATOM  =     39329.21466429
  ---------------------------------------------------
  free energy    TOTEN  =      -285.17773356 eV

  energy without entropy =     -284.66196262  energy(sigma->0) =     -284.91984809


--------------------------------------------------------------------------------------------------------




--------------------------------------- Iteration      1(  33)  ---------------------------------------


    POTLOK:  cpu time      0.0578: real time      0.0584
    SETDIJ:  cpu time      0.2310: real time      0.2331
    TRIAL :  cpu time      4.0366: real time      4.0811
    CORREC:  cpu time      1.6486: real time      1.6641
    CHARGE:  cpu time      0.2626: real time      0.2646
    --------------------------------------------
      LOOP:  cpu time      6.2390: real time      6.3038

 eigenvalue-minimisations  :     0
 total energy-change (2. order) :-0.9511954E-02  (-0.7330938E-02)
 number of electron     540.0000018 magnetization 
 augmentation part      168.1068205 magnetization 

 DIPCOR: dipole corrections for dipol
 direction  3 min pos     1,
 dipolmoment           0.000000      0.000000      1.491955 electrons x Angstroem
 Tr[quadrupol]     -6326.626306

 energy correction for charged system         0.000000 eV
 dipol+quadrupol energy correction           -0.093951 eV
 added-field ion interaction         -0.000000 eV  (added to PSCEN)


 Free energy of the ion-electron system (eV)
  ---------------------------------------------------
  alpha Z        PSCENC =      1293.09624183
  Ewald energy   TEWEN  =    404356.23868338
  -Hartree energ DENC   =   -445531.48335172
  -exchange      EXHF   =         0.00000000
  -V(xc)+E(xc)   XCENC  =       149.96498276
  PAW double counting   =     47713.27745258   -46278.88896687
  entropy T*S    EENTRO =        -0.51641598
  eigenvalues    EBANDS =     -1316.09118082
  atomic energy  EATOM  =     39329.21466429
  ---------------------------------------------------
  free energy    TOTEN  =      -285.18724552 eV

  energy without entropy =     -284.67082953  energy(sigma->0) =     -284.92903753


--------------------------------------------------------------------------------------------------------




--------------------------------------- Iteration      1(  34)  ---------------------------------------


    POTLOK:  cpu time      0.0591: real time      0.0597
    SETDIJ:  cpu time      0.2305: real time      0.2325
    TRIAL :  cpu time      4.0402: real time      4.0855
    CORREC:  cpu time      1.6578: real time      1.6735
    CHARGE:  cpu time      0.2627: real time      0.2648
    --------------------------------------------
      LOOP:  cpu time      6.2523: real time      6.3180

 eigenvalue-minimisations  :     0
 total energy-change (2. order) :-0.7274647E-02  (-0.3669680E-01)
 number of electron     540.0000018 magnetization 
 augmentation part      168.4004873 magnetization 

 DIPCOR: dipole corrections for dipol
 direction  3 min pos     1,
 dipolmoment           0.000000      0.000000     -0.132753 electrons x Angstroem
 Tr[quadrupol]     -6332.544315

 energy correction for charged system         0.000000 eV
 dipol+quadrupol energy correction           -0.000744 eV
 added-field ion interaction          0.000000 eV  (added to PSCEN)


 Free energy of the ion-electron system (eV)
  ---------------------------------------------------
  alpha Z        PSCENC =      1293.09635588
  Ewald energy   TEWEN  =    404356.23868338
  -Hartree energ DENC   =   -445522.95578531
  -exchange      EXHF   =         0.00000000
  -V(xc)+E(xc)   XCENC  =       150.06586837
  PAW double counting   =     47712.18125458   -46277.51004227
  entropy T*S    EENTRO =        -0.52084453
  eigenvalues    EBANDS =     -1325.00910310
  atomic energy  EATOM  =     39329.21466429
  ---------------------------------------------------
  free energy    TOTEN  =      -285.19452016 eV

  energy without entropy =     -284.67367564  energy(sigma->0) =     -284.93409790


--------------------------------------------------------------------------------------------------------




--------------------------------------- Iteration      1(  35)  ---------------------------------------


    POTLOK:  cpu time      0.0588: real time      0.0595
    SETDIJ:  cpu time      0.2299: real time      0.2318
    TRIAL :  cpu time      4.0401: real time      4.0844
    CORREC:  cpu time      1.6709: real time      1.6898
    CHARGE:  cpu time      0.2614: real time      0.2632
    --------------------------------------------
      LOOP:  cpu time      6.2638: real time      6.3314

 eigenvalue-minimisations  :     0
 total energy-change (2. order) :-0.3670378E-01  (-0.8513935E-03)
 number of electron     540.0000018 magnetization 
 augmentation part      168.4056762 magnetization 

 DIPCOR: dipole corrections for dipol
 direction  3 min pos     1,
 dipolmoment           0.000000      0.000000      1.015249 electrons x Angstroem
 Tr[quadrupol]     -6331.551689

 energy correction for charged system         0.000000 eV
 dipol+quadrupol energy correction           -0.043505 eV
 added-field ion interaction         -0.000000 eV  (added to PSCEN)


 Free energy of the ion-electron system (eV)
  ---------------------------------------------------
  alpha Z        PSCENC =      1293.09667292
  Ewald energy   TEWEN  =    404356.23868338
  -Hartree energ DENC   =   -445618.09897183
  -exchange      EXHF   =         0.00000000
  -V(xc)+E(xc)   XCENC  =       150.63591745
  PAW double counting   =     47709.23562453   -46272.99095495
  entropy T*S    EENTRO =        -0.52095759
  eigenvalues    EBANDS =     -1232.04201520
  atomic energy  EATOM  =     39329.21466429
  ---------------------------------------------------
  free energy    TOTEN  =      -285.23122394 eV

  energy without entropy =     -284.71026636  energy(sigma->0) =     -284.97074515


--------------------------------------------------------------------------------------------------------




--------------------------------------- Iteration      1(  36)  ---------------------------------------


    POTLOK:  cpu time      0.0590: real time      0.0596
    SETDIJ:  cpu time      0.2310: real time      0.2328
    TRIAL :  cpu time      4.0415: real time      4.0836
    CORREC:  cpu time      2.2350: real time      2.2537
    CHARGE:  cpu time      0.2611: real time      0.2629
    --------------------------------------------
      LOOP:  cpu time      6.8304: real time      6.8955

 eigenvalue-minimisations  :     0
 total energy-change (2. order) :-0.8560116E-03  (-0.1393013E-01)
 number of electron     540.0000018 magnetization 
 augmentation part      168.4164464 magnetization 

 DIPCOR: dipole corrections for dipol
 direction  3 min pos     1,
 dipolmoment           0.000000      0.000000     -0.016275 electrons x Angstroem
 Tr[quadrupol]     -6330.878241

 energy correction for charged system         0.000000 eV
 dipol+quadrupol energy correction           -0.000011 eV
 added-field ion interaction          0.000000 eV  (added to PSCEN)


 Free energy of the ion-electron system (eV)
  ---------------------------------------------------
  alpha Z        PSCENC =      1293.09672856
  Ewald energy   TEWEN  =    404356.23868338
  -Hartree energ DENC   =   -445619.19536422
  -exchange      EXHF   =         0.00000000
  -V(xc)+E(xc)   XCENC  =       150.64488163
  PAW double counting   =     47708.64568145   -46272.36383034
  entropy T*S    EENTRO =        -0.52318427
  eigenvalues    EBANDS =     -1230.99256711
  atomic energy  EATOM  =     39329.21466429
  ---------------------------------------------------
  free energy    TOTEN  =      -285.23207996 eV

  energy without entropy =     -284.70889568  energy(sigma->0) =     -284.97048782


--------------------------------------------------------------------------------------------------------




--------------------------------------- Iteration      1(  37)  ---------------------------------------


    POTLOK:  cpu time      0.0579: real time      0.0585
    SETDIJ:  cpu time      0.2309: real time      0.2328
    TRIAL :  cpu time      4.0418: real time      4.0839
    CORREC:  cpu time      1.6541: real time      1.6689
    CHARGE:  cpu time      0.2611: real time      0.2631
    --------------------------------------------
      LOOP:  cpu time      6.2489: real time      6.3103

 eigenvalue-minimisations  :     0
 total energy-change (2. order) :-0.1454172E-01  (-0.2241020E-02)
 number of electron     540.0000018 magnetization 
 augmentation part      168.4171785 magnetization 

 DIPCOR: dipole corrections for dipol
 direction  3 min pos     1,
 dipolmoment           0.000000      0.000000      1.322779 electrons x Angstroem
 Tr[quadrupol]     -6329.602601

 energy correction for charged system         0.000000 eV
 dipol+quadrupol energy correction           -0.073852 eV
 added-field ion interaction          0.000000 eV  (added to PSCEN)


 Free energy of the ion-electron system (eV)
  ---------------------------------------------------
  alpha Z        PSCENC =      1293.09604555
  Ewald energy   TEWEN  =    404356.23868338
  -Hartree energ DENC   =   -445577.43916868
  -exchange      EXHF   =         0.00000000
  -V(xc)+E(xc)   XCENC  =       150.59700929
  PAW double counting   =     47675.22972672   -46238.30479246
  entropy T*S    EENTRO =        -0.52363642
  eigenvalues    EBANDS =     -1273.35560549
  atomic energy  EATOM  =     39329.21466429
  ---------------------------------------------------
  free energy    TOTEN  =      -285.24662167 eV

  energy without entropy =     -284.72298525  energy(sigma->0) =     -284.98480346


--------------------------------------------------------------------------------------------------------




--------------------------------------- Iteration      1(  38)  ---------------------------------------


    POTLOK:  cpu time      0.0583: real time      0.0590
    SETDIJ:  cpu time      0.2297: real time      0.2316
    TRIAL :  cpu time      4.0374: real time      4.0795
    CORREC:  cpu time      1.6491: real time      1.6641
    CHARGE:  cpu time      0.2628: real time      0.2648
    --------------------------------------------
      LOOP:  cpu time      6.2405: real time      6.3021

 eigenvalue-minimisations  :     0
 total energy-change (2. order) :-0.2271431E-02  (-0.5843589E-02)
 number of electron     540.0000018 magnetization 
 augmentation part      168.4144905 magnetization 

 DIPCOR: dipole corrections for dipol
 direction  3 min pos     1,
 dipolmoment           0.000000      0.000000     -0.098381 electrons x Angstroem
 Tr[quadrupol]     -6331.377191

 energy correction for charged system         0.000000 eV
 dipol+quadrupol energy correction           -0.000409 eV
 added-field ion interaction          0.000000 eV  (added to PSCEN)


 Free energy of the ion-electron system (eV)
  ---------------------------------------------------
  alpha Z        PSCENC =      1293.09676285
  Ewald energy   TEWEN  =    404356.23868338
  -Hartree energ DENC   =   -445576.41999159
  -exchange      EXHF   =         0.00000000
  -V(xc)+E(xc)   XCENC  =       150.58867151
  PAW double counting   =     47670.11216713   -46233.08853756
  entropy T*S    EENTRO =        -0.52498752
  eigenvalues    EBANDS =     -1274.46767671
  atomic energy  EATOM  =     39329.21466429
  ---------------------------------------------------
  free energy    TOTEN  =      -285.24889310 eV

  energy without entropy =     -284.72390558  energy(sigma->0) =     -284.98639934


--------------------------------------------------------------------------------------------------------




--------------------------------------- Iteration      1(  39)  ---------------------------------------


    POTLOK:  cpu time      0.0582: real time      0.0588
    SETDIJ:  cpu time      0.2319: real time      0.2336
    TRIAL :  cpu time      4.0435: real time      4.0850
    CORREC:  cpu time      1.6513: real time      1.6668
    CHARGE:  cpu time      0.2647: real time      0.2670
    --------------------------------------------
      LOOP:  cpu time      6.2524: real time      6.3141

 eigenvalue-minimisations  :     0
 total energy-change (2. order) :-0.5792678E-02  (-0.1029987E-02)
 number of electron     540.0000018 magnetization 
 augmentation part      168.4128322 magnetization 

 DIPCOR: dipole corrections for dipol
 direction  3 min pos     1,
 dipolmoment           0.000000      0.000000      0.601610 electrons x Angstroem
 Tr[quadrupol]     -6329.751560

 energy correction for charged system         0.000000 eV
 dipol+quadrupol energy correction           -0.015276 eV
 added-field ion interaction          0.000000 eV  (added to PSCEN)


 Free energy of the ion-electron system (eV)
  ---------------------------------------------------
  alpha Z        PSCENC =      1293.09665030
  Ewald energy   TEWEN  =    404356.23868338
  -Hartree energ DENC   =   -445599.41382728
  -exchange      EXHF   =         0.00000000
  -V(xc)+E(xc)   XCENC  =       150.56213626
  PAW double counting   =     47656.16211149   -46218.86948456
  entropy T*S    EENTRO =        -0.52526894
  eigenvalues    EBANDS =     -1251.72063215
  atomic energy  EATOM  =     39329.21466429
  ---------------------------------------------------
  free energy    TOTEN  =      -285.25468578 eV

  energy without entropy =     -284.72941684  energy(sigma->0) =     -284.99205131


--------------------------------------------------------------------------------------------------------




--------------------------------------- Iteration      1(  40)  ---------------------------------------


    POTLOK:  cpu time      0.0580: real time      0.0586
    SETDIJ:  cpu time      0.2468: real time      0.2489
    TRIAL :  cpu time      4.0531: real time      4.1130
    CORREC:  cpu time      1.6515: real time      1.6670
    CHARGE:  cpu time      0.2617: real time      0.2635
    --------------------------------------------
      LOOP:  cpu time      6.2741: real time      6.3540

 eigenvalue-minimisations  :     0
 total energy-change (2. order) :-0.1026217E-02  (-0.1681790E-02)
 number of electron     540.0000018 magnetization 
 augmentation part      168.4086340 magnetization 

 DIPCOR: dipole corrections for dipol
 direction  3 min pos     1,
 dipolmoment           0.000000      0.000000     -0.126310 electrons x Angstroem
 Tr[quadrupol]     -6328.350704

 energy correction for charged system         0.000000 eV
 dipol+quadrupol energy correction           -0.000673 eV
 added-field ion interaction         -0.000000 eV  (added to PSCEN)


 Free energy of the ion-electron system (eV)
  ---------------------------------------------------
  alpha Z        PSCENC =      1293.09671151
  Ewald energy   TEWEN  =    404356.23868338
  -Hartree energ DENC   =   -445595.16671738
  -exchange      EXHF   =         0.00000000
  -V(xc)+E(xc)   XCENC  =       150.55602257
  PAW double counting   =     47653.43936259   -46216.09902190
  entropy T*S    EENTRO =        -0.52577861
  eigenvalues    EBANDS =     -1256.01014810
  atomic energy  EATOM  =     39329.21466429
  ---------------------------------------------------
  free energy    TOTEN  =      -285.25571200 eV

  energy without entropy =     -284.72993339  energy(sigma->0) =     -284.99282270


--------------------------------------------------------------------------------------------------------




--------------------------------------- Iteration      1(  41)  ---------------------------------------


    POTLOK:  cpu time      0.0589: real time      0.0595
    SETDIJ:  cpu time      0.2309: real time      0.2328
    TRIAL :  cpu time      4.0519: real time      4.0949
    CORREC:  cpu time      1.6486: real time      1.6639
    CHARGE:  cpu time      0.2639: real time      0.2658
    --------------------------------------------
      LOOP:  cpu time      6.2577: real time      6.3204

 eigenvalue-minimisations  :     0
 total energy-change (2. order) :-0.1674400E-02  (-0.4387438E-03)
 number of electron     540.0000018 magnetization 
 augmentation part      168.4067335 magnetization 

 DIPCOR: dipole corrections for dipol
 direction  3 min pos     1,
 dipolmoment           0.000000      0.000000      0.148095 electrons x Angstroem
 Tr[quadrupol]     -6330.237882

 energy correction for charged system         0.000000 eV
 dipol+quadrupol energy correction           -0.000926 eV
 added-field ion interaction         -0.000000 eV  (added to PSCEN)


 Free energy of the ion-electron system (eV)
  ---------------------------------------------------
  alpha Z        PSCENC =      1293.09676753
  Ewald energy   TEWEN  =    404356.23868338
  -Hartree energ DENC   =   -445578.29759735
  -exchange      EXHF   =         0.00000000
  -V(xc)+E(xc)   XCENC  =       150.54490466
  PAW double counting   =     47648.81587783   -46211.39855170
  entropy T*S    EENTRO =        -0.52593712
  eigenvalues    EBANDS =     -1272.94635643
  atomic energy  EATOM  =     39329.21466429
  ---------------------------------------------------
  free energy    TOTEN  =      -285.25738640 eV

  energy without entropy =     -284.73144928  energy(sigma->0) =     -284.99441784


--------------------------------------------------------------------------------------------------------




--------------------------------------- Iteration      1(  42)  ---------------------------------------


    POTLOK:  cpu time      0.0586: real time      0.0592
    SETDIJ:  cpu time      0.2527: real time      0.2549
    TRIAL :  cpu time      4.0356: real time      4.0785
    CORREC:  cpu time      1.6543: real time      1.6694
    CHARGE:  cpu time      0.2615: real time      0.2634
    --------------------------------------------
      LOOP:  cpu time      6.2653: real time      6.3279

 eigenvalue-minimisations  :     0
 total energy-change (2. order) :-0.4357201E-03  (-0.2121009E-02)
 number of electron     540.0000018 magnetization 
 augmentation part      168.3966882 magnetization 

 DIPCOR: dipole corrections for dipol
 direction  3 min pos     1,
 dipolmoment           0.000000      0.000000     -0.108610 electrons x Angstroem
 Tr[quadrupol]     -6331.423828

 energy correction for charged system         0.000000 eV
 dipol+quadrupol energy correction           -0.000498 eV
 added-field ion interaction          0.000000 eV  (added to PSCEN)


 Free energy of the ion-electron system (eV)
  ---------------------------------------------------
  alpha Z        PSCENC =      1293.09665286
  Ewald energy   TEWEN  =    404356.23868338
  -Hartree energ DENC   =   -445580.59824097
  -exchange      EXHF   =         0.00000000
  -V(xc)+E(xc)   XCENC  =       150.54461801
  PAW double counting   =     47648.00917375   -46210.57101154
  entropy T*S    EENTRO =        -0.52681177
  eigenvalues    EBANDS =     -1270.66642478
  atomic energy  EATOM  =     39329.21466429
  ---------------------------------------------------
  free energy    TOTEN  =      -285.25782212 eV

  energy without entropy =     -284.73101035  energy(sigma->0) =     -284.99441624


--------------------------------------------------------------------------------------------------------




--------------------------------------- Iteration      1(  43)  ---------------------------------------


    POTLOK:  cpu time      0.0589: real time      0.0596
    SETDIJ:  cpu time      0.2304: real time      0.2322
    TRIAL :  cpu time      4.0420: real time      4.0839
    CORREC:  cpu time      1.6551: real time      1.6707
    CHARGE:  cpu time      0.2620: real time      0.2639
    --------------------------------------------
      LOOP:  cpu time      6.2511: real time      6.3130

 eigenvalue-minimisations  :     0
 total energy-change (2. order) :-0.2114244E-02  (-0.8028783E-04)
 number of electron     540.0000018 magnetization 
 augmentation part      168.3962621 magnetization 

 DIPCOR: dipole corrections for dipol
 direction  3 min pos     1,
 dipolmoment           0.000000      0.000000      0.176550 electrons x Angstroem
 Tr[quadrupol]     -6330.575108

 energy correction for charged system         0.000000 eV
 dipol+quadrupol energy correction           -0.001316 eV
 added-field ion interaction          0.000000 eV  (added to PSCEN)


 Free energy of the ion-electron system (eV)
  ---------------------------------------------------
  alpha Z        PSCENC =      1293.09675663
  Ewald energy   TEWEN  =    404356.23868338
  -Hartree energ DENC   =   -445598.99260044
  -exchange      EXHF   =         0.00000000
  -V(xc)+E(xc)   XCENC  =       150.54595021
  PAW double counting   =     47644.51872768   -46206.97824677
  entropy T*S    EENTRO =        -0.52683757
  eigenvalues    EBANDS =     -1252.37705957
  atomic energy  EATOM  =     39329.21466429
  ---------------------------------------------------
  free energy    TOTEN  =      -285.25993636 eV

  energy without entropy =     -284.73309879  energy(sigma->0) =     -284.99651758


--------------------------------------------------------------------------------------------------------




--------------------------------------- Iteration      1(  44)  ---------------------------------------


    POTLOK:  cpu time      0.0587: real time      0.0592
    SETDIJ:  cpu time      0.2298: real time      0.2316
    TRIAL :  cpu time      4.0367: real time      4.0791
    CORREC:  cpu time      1.6801: real time      1.6970
    CHARGE:  cpu time      0.2632: real time      0.2653
    --------------------------------------------
      LOOP:  cpu time      6.2715: real time      6.3351

 eigenvalue-minimisations  :     0
 total energy-change (2. order) :-0.7944157E-04  (-0.2857279E-03)
 number of electron     540.0000018 magnetization 
 augmentation part      168.3946108 magnetization 

 DIPCOR: dipole corrections for dipol
 direction  3 min pos     1,
 dipolmoment           0.000000      0.000000     -0.015050 electrons x Angstroem
 Tr[quadrupol]     -6330.402967

 energy correction for charged system         0.000000 eV
 dipol+quadrupol energy correction           -0.000010 eV
 added-field ion interaction         -0.000000 eV  (added to PSCEN)


 Free energy of the ion-electron system (eV)
  ---------------------------------------------------
  alpha Z        PSCENC =      1293.09676481
  Ewald energy   TEWEN  =    404356.23868338
  -Hartree energ DENC   =   -445598.54731962
  -exchange      EXHF   =         0.00000000
  -V(xc)+E(xc)   XCENC  =       150.54590727
  PAW double counting   =     47644.34231365   -46206.79763976
  entropy T*S    EENTRO =        -0.52690980
  eigenvalues    EBANDS =     -1252.82655225
  atomic energy  EATOM  =     39329.21466429
  ---------------------------------------------------
  free energy    TOTEN  =      -285.26001580 eV

  energy without entropy =     -284.73310600  energy(sigma->0) =     -284.99656090


--------------------------------------------------------------------------------------------------------




--------------------------------------- Iteration      1(  45)  ---------------------------------------


    POTLOK:  cpu time      0.0593: real time      0.0599
    SETDIJ:  cpu time      0.2317: real time      0.2334
    TRIAL :  cpu time      4.0653: real time      4.1090
    CORREC:  cpu time      1.6538: real time      1.6691
    CHARGE:  cpu time      0.2622: real time      0.2642
    --------------------------------------------
      LOOP:  cpu time      6.2750: real time      6.3385

 eigenvalue-minimisations  :     0
 total energy-change (2. order) :-0.2842751E-03  (-0.5500619E-04)
 number of electron     540.0000018 magnetization 
 augmentation part      168.3944862 magnetization 

 DIPCOR: dipole corrections for dipol
 direction  3 min pos     1,
 dipolmoment           0.000000      0.000000      0.087353 electrons x Angstroem
 Tr[quadrupol]     -6330.737223

 energy correction for charged system         0.000000 eV
 dipol+quadrupol energy correction           -0.000322 eV
 added-field ion interaction          0.000000 eV  (added to PSCEN)


 Free energy of the ion-electron system (eV)
  ---------------------------------------------------
  alpha Z        PSCENC =      1293.09676647
  Ewald energy   TEWEN  =    404356.23868338
  -Hartree energ DENC   =   -445593.46224947
  -exchange      EXHF   =         0.00000000
  -V(xc)+E(xc)   XCENC  =       150.54549816
  PAW double counting   =     47643.52280645   -46205.96129059
  entropy T*S    EENTRO =        -0.52691725
  eigenvalues    EBANDS =     -1257.92826896
  atomic energy  EATOM  =     39329.21466429
  ---------------------------------------------------
  free energy    TOTEN  =      -285.26030008 eV

  energy without entropy =     -284.73338283  energy(sigma->0) =     -284.99684145


--------------------------------------------------------------------------------------------------------




--------------------------------------- Iteration      1(  46)  ---------------------------------------


    POTLOK:  cpu time      0.0588: real time      0.0593
    SETDIJ:  cpu time      0.2305: real time      0.2323
    TRIAL :  cpu time      4.6067: real time      4.6516
    CORREC:  cpu time      1.7884: real time      1.8040
    CHARGE:  cpu time      0.2617: real time      0.2636
    --------------------------------------------
      LOOP:  cpu time      6.9489: real time      7.0138

 eigenvalue-minimisations  :     0
 total energy-change (2. order) :-0.5444628E-04  (-0.7639571E-04)
 number of electron     540.0000018 magnetization 
 augmentation part      168.3944972 magnetization 

 DIPCOR: dipole corrections for dipol
 direction  3 min pos     1,
 dipolmoment           0.000000      0.000000     -0.041794 electrons x Angstroem
 Tr[quadrupol]     -6331.056153

 energy correction for charged system         0.000000 eV
 dipol+quadrupol energy correction           -0.000074 eV
 added-field ion interaction         -0.000000 eV  (added to PSCEN)


 Free energy of the ion-electron system (eV)
  ---------------------------------------------------
  alpha Z        PSCENC =      1293.09675993
  Ewald energy   TEWEN  =    404356.23868338
  -Hartree energ DENC   =   -445594.96371742
  -exchange      EXHF   =         0.00000000
  -V(xc)+E(xc)   XCENC  =       150.54587443
  PAW double counting   =     47643.37998420   -46205.81427791
  entropy T*S    EENTRO =        -0.52692675
  eigenvalues    EBANDS =     -1256.43140816
  atomic energy  EATOM  =     39329.21466429
  ---------------------------------------------------
  free energy    TOTEN  =      -285.26035453 eV

  energy without entropy =     -284.73342778  energy(sigma->0) =     -284.99689115


--------------------------------------------------------------------------------------------------------




--------------------------------------- Iteration      1(  47)  ---------------------------------------


    POTLOK:  cpu time      0.0582: real time      0.0588
    SETDIJ:  cpu time      0.2316: real time      0.2334
    TRIAL :  cpu time      4.0373: real time      4.0819
    CORREC:  cpu time      1.6566: real time      1.6717
    CHARGE:  cpu time      0.2622: real time      0.2640
    --------------------------------------------
      LOOP:  cpu time      6.2488: real time      6.3128

 eigenvalue-minimisations  :     0
 total energy-change (2. order) :-0.7554315E-04  (-0.4719104E-04)
 number of electron     540.0000018 magnetization 
 augmentation part      168.3948120 magnetization 

 DIPCOR: dipole corrections for dipol
 direction  3 min pos     1,
 dipolmoment           0.000000      0.000000      0.019307 electrons x Angstroem
 Tr[quadrupol]     -6330.666658

 energy correction for charged system         0.000000 eV
 dipol+quadrupol energy correction           -0.000016 eV
 added-field ion interaction         -0.000000 eV  (added to PSCEN)


 Free energy of the ion-electron system (eV)
  ---------------------------------------------------
  alpha Z        PSCENC =      1293.09676751
  Ewald energy   TEWEN  =    404356.23868338
  -Hartree energ DENC   =   -445598.86866822
  -exchange      EXHF   =         0.00000000
  -V(xc)+E(xc)   XCENC  =       150.54675491
  PAW double counting   =     47643.15571988   -46205.58309256
  entropy T*S    EENTRO =        -0.52693002
  eigenvalues    EBANDS =     -1252.53433251
  atomic energy  EATOM  =     39329.21466429
  ---------------------------------------------------
  free energy    TOTEN  =      -285.26043007 eV

  energy without entropy =     -284.73350005  energy(sigma->0) =     -284.99696506


--------------------------------------------------------------------------------------------------------




--------------------------------------- Iteration      1(  48)  ---------------------------------------


    POTLOK:  cpu time      0.0588: real time      0.0594
    SETDIJ:  cpu time      0.2308: real time      0.2325
    TRIAL :  cpu time      4.0357: real time      4.0783
    CORREC:  cpu time      1.6534: real time      1.6692
    CHARGE:  cpu time      0.2640: real time      0.2659
    --------------------------------------------
      LOOP:  cpu time      6.2463: real time      6.3089

 eigenvalue-minimisations  :     0
 total energy-change (2. order) :-0.4696887E-04  (-0.1315865E-03)
 number of electron     540.0000018 magnetization 
 augmentation part      168.3958577 magnetization 

 DIPCOR: dipole corrections for dipol
 direction  3 min pos     1,
 dipolmoment           0.000000      0.000000     -0.063280 electrons x Angstroem
 Tr[quadrupol]     -6330.540069

 energy correction for charged system         0.000000 eV
 dipol+quadrupol energy correction           -0.000169 eV
 added-field ion interaction          0.000000 eV  (added to PSCEN)


 Free energy of the ion-electron system (eV)
  ---------------------------------------------------
  alpha Z        PSCENC =      1293.09675813
  Ewald energy   TEWEN  =    404356.23868338
  -Hartree energ DENC   =   -445598.68149508
  -exchange      EXHF   =         0.00000000
  -V(xc)+E(xc)   XCENC  =       150.54711326
  PAW double counting   =     47642.65852688   -46205.07895351
  entropy T*S    EENTRO =        -0.52698024
  eigenvalues    EBANDS =     -1252.72884437
  atomic energy  EATOM  =     39329.21466429
  ---------------------------------------------------
  free energy    TOTEN  =      -285.26047704 eV

  energy without entropy =     -284.73349680  energy(sigma->0) =     -284.99698692


--------------------------------------------------------------------------------------------------------




--------------------------------------- Iteration      1(  49)  ---------------------------------------


    POTLOK:  cpu time      0.0589: real time      0.0596
    SETDIJ:  cpu time      0.2293: real time      0.2311
    TRIAL :  cpu time      4.0556: real time      4.1092
    CORREC:  cpu time      1.6688: real time      1.6902
    CHARGE:  cpu time      0.2625: real time      0.2646
    --------------------------------------------
      LOOP:  cpu time      6.2782: real time      6.3577

 eigenvalue-minimisations  :     0
 total energy-change (2. order) :-0.1303618E-03  (-0.2355145E-04)
 number of electron     540.0000018 magnetization 
 augmentation part      168.3962384 magnetization 

 DIPCOR: dipole corrections for dipol
 direction  3 min pos     1,
 dipolmoment           0.000000      0.000000      0.033281 electrons x Angstroem
 Tr[quadrupol]     -6330.649158

 energy correction for charged system         0.000000 eV
 dipol+quadrupol energy correction           -0.000047 eV
 added-field ion interaction          0.000000 eV  (added to PSCEN)


 Free energy of the ion-electron system (eV)
  ---------------------------------------------------
  alpha Z        PSCENC =      1293.09676339
  Ewald energy   TEWEN  =    404356.23868338
  -Hartree energ DENC   =   -445597.30983259
  -exchange      EXHF   =         0.00000000
  -V(xc)+E(xc)   XCENC  =       150.54811170
  PAW double counting   =     47641.07960374   -46203.47905420
  entropy T*S    EENTRO =        -0.52698913
  eigenvalues    EBANDS =     -1254.12256686
  atomic energy  EATOM  =     39329.21466429
  ---------------------------------------------------
  free energy    TOTEN  =      -285.26060740 eV

  energy without entropy =     -284.73361827  energy(sigma->0) =     -284.99711284


--------------------------------------------------------------------------------------------------------




--------------------------------------- Iteration      1(  50)  ---------------------------------------


    POTLOK:  cpu time      0.0584: real time      0.0590
    SETDIJ:  cpu time      0.2309: real time      0.2327
    TRIAL :  cpu time      4.0366: real time      4.0781
    CORREC:  cpu time      1.6731: real time      1.6890
    CHARGE:  cpu time      0.2639: real time      0.2658
    --------------------------------------------
      LOOP:  cpu time      6.2648: real time      6.3277

 eigenvalue-minimisations  :     0
 total energy-change (2. order) :-0.2321472E-04  (-0.1132715E-03)
 number of electron     540.0000018 magnetization 
 augmentation part      168.3984940 magnetization 

 DIPCOR: dipole corrections for dipol
 direction  3 min pos     1,
 dipolmoment           0.000000      0.000000     -0.007904 electrons x Angstroem
 Tr[quadrupol]     -6330.712225

 energy correction for charged system         0.000000 eV
 dipol+quadrupol energy correction           -0.000003 eV
 added-field ion interaction          0.000000 eV  (added to PSCEN)


 Free energy of the ion-electron system (eV)
  ---------------------------------------------------
  alpha Z        PSCENC =      1293.09676706
  Ewald energy   TEWEN  =    404356.23868338
  -Hartree energ DENC   =   -445597.54474773
  -exchange      EXHF   =         0.00000000
  -V(xc)+E(xc)   XCENC  =       150.54847756
  PAW double counting   =     47640.66293651   -46203.05776710
  entropy T*S    EENTRO =        -0.52705497
  eigenvalues    EBANDS =     -1253.89265545
  atomic energy  EATOM  =     39329.21466429
  ---------------------------------------------------
  free energy    TOTEN  =      -285.26063061 eV

  energy without entropy =     -284.73357565  energy(sigma->0) =     -284.99710313


--------------------------------------------------------------------------------------------------------




--------------------------------------- Iteration      1(  51)  ---------------------------------------


    POTLOK:  cpu time      0.0585: real time      0.0592
    SETDIJ:  cpu time      0.2311: real time      0.2329
    TRIAL :  cpu time      4.0372: real time      4.0802
    CORREC:  cpu time      1.6492: real time      1.6637
    CHARGE:  cpu time      0.2635: real time      0.2653
    --------------------------------------------
      LOOP:  cpu time      6.2423: real time      6.3042

 eigenvalue-minimisations  :     0
 total energy-change (2. order) :-0.1123922E-03  (-0.1055691E-04)
 number of electron     540.0000018 magnetization 
 augmentation part      168.3987428 magnetization 

 DIPCOR: dipole corrections for dipol
 direction  3 min pos     1,
 dipolmoment           0.000000      0.000000      0.054131 electrons x Angstroem
 Tr[quadrupol]     -6330.627137

 energy correction for charged system         0.000000 eV
 dipol+quadrupol energy correction           -0.000124 eV
 added-field ion interaction         -0.000000 eV  (added to PSCEN)


 Free energy of the ion-electron system (eV)
  ---------------------------------------------------
  alpha Z        PSCENC =      1293.09676690
  Ewald energy   TEWEN  =    404356.23868338
  -Hartree energ DENC   =   -445599.33756744
  -exchange      EXHF   =         0.00000000
  -V(xc)+E(xc)   XCENC  =       150.55061776
  PAW double counting   =     47638.30245759   -46200.67254198
  entropy T*S    EENTRO =        -0.52705931
  eigenvalues    EBANDS =     -1252.12676853
  atomic energy  EATOM  =     39329.21466429
  ---------------------------------------------------
  free energy    TOTEN  =      -285.26074301 eV

  energy without entropy =     -284.73368369  energy(sigma->0) =     -284.99721335


--------------------------------------------------------------------------------------------------------




--------------------------------------- Iteration      1(  52)  ---------------------------------------


    POTLOK:  cpu time      0.0583: real time      0.0590
    SETDIJ:  cpu time      0.2300: real time      0.2323
    TRIAL :  cpu time      4.0382: real time      4.0799
    CORREC:  cpu time      1.6529: real time      1.6686
    CHARGE:  cpu time      0.2640: real time      0.2660
    --------------------------------------------
      LOOP:  cpu time      6.2459: real time      6.3082

 eigenvalue-minimisations  :     0
 total energy-change (2. order) :-0.1034811E-04  (-0.3553420E-04)
 number of electron     540.0000018 magnetization 
 augmentation part      168.3998278 magnetization 

 DIPCOR: dipole corrections for dipol
 direction  3 min pos     1,
 dipolmoment           0.000000      0.000000     -0.005082 electrons x Angstroem
 Tr[quadrupol]     -6330.575533

 energy correction for charged system         0.000000 eV
 dipol+quadrupol energy correction           -0.000001 eV
 added-field ion interaction         -0.000000 eV  (added to PSCEN)


 Free energy of the ion-electron system (eV)
  ---------------------------------------------------
  alpha Z        PSCENC =      1293.09676647
  Ewald energy   TEWEN  =    404356.23868338
  -Hartree energ DENC   =   -445599.04925297
  -exchange      EXHF   =         0.00000000
  -V(xc)+E(xc)   XCENC  =       150.55078216
  PAW double counting   =     47638.00039431   -46200.36797799
  entropy T*S    EENTRO =        -0.52706532
  eigenvalues    EBANDS =     -1252.41775369
  atomic energy  EATOM  =     39329.21466429
  ---------------------------------------------------
  free energy    TOTEN  =      -285.26075335 eV

  energy without entropy =     -284.73368804  energy(sigma->0) =     -284.99722070


--------------------------------------------------------------------------------------------------------




--------------------------------------- Iteration      1(  53)  ---------------------------------------


    POTLOK:  cpu time      0.0584: real time      0.0590
    SETDIJ:  cpu time      0.2307: real time      0.2325
    TRIAL :  cpu time      4.0371: real time      4.0790
    CORREC:  cpu time      1.6549: real time      1.6706
    CHARGE:  cpu time      0.2643: real time      0.2661
    --------------------------------------------
      LOOP:  cpu time      6.2483: real time      6.3100

 eigenvalue-minimisations  :     0
 total energy-change (2. order) :-0.3537184E-04  (-0.1249505E-04)
 number of electron     540.0000018 magnetization 
 augmentation part      168.4003018 magnetization 

 DIPCOR: dipole corrections for dipol
 direction  3 min pos     1,
 dipolmoment           0.000000      0.000000      0.034309 electrons x Angstroem
 Tr[quadrupol]     -6330.581907

 energy correction for charged system         0.000000 eV
 dipol+quadrupol energy correction           -0.000050 eV
 added-field ion interaction         -0.000000 eV  (added to PSCEN)


 Free energy of the ion-electron system (eV)
  ---------------------------------------------------
  alpha Z        PSCENC =      1293.09676710
  Ewald energy   TEWEN  =    404356.23868338
  -Hartree energ DENC   =   -445596.32041681
  -exchange      EXHF   =         0.00000000
  -V(xc)+E(xc)   XCENC  =       150.55125752
  PAW double counting   =     47636.54906738   -46198.90678016
  entropy T*S    EENTRO =        -0.52706497
  eigenvalues    EBANDS =     -1255.15696611
  atomic energy  EATOM  =     39329.21466429
  ---------------------------------------------------
  free energy    TOTEN  =      -285.26078873 eV

  energy without entropy =     -284.73372376  energy(sigma->0) =     -284.99725624


--------------------------------------------------------------------------------------------------------




--------------------------------------- Iteration      1(  54)  ---------------------------------------


    POTLOK:  cpu time      0.0586: real time      0.0592
    SETDIJ:  cpu time      0.2316: real time      0.2333
    TRIAL :  cpu time      4.0498: real time      4.0950
    CORREC:  cpu time      1.6561: real time      1.6719
    CHARGE:  cpu time      0.2640: real time      0.2660
    --------------------------------------------
      LOOP:  cpu time      6.2629: real time      6.3283

 eigenvalue-minimisations  :     0
 total energy-change (2. order) :-0.1223190E-04  (-0.2886134E-04)
 number of electron     540.0000018 magnetization 
 augmentation part      168.4015896 magnetization 

 DIPCOR: dipole corrections for dipol
 direction  3 min pos     1,
 dipolmoment           0.000000      0.000000     -0.011937 electrons x Angstroem
 Tr[quadrupol]     -6330.682194

 energy correction for charged system         0.000000 eV
 dipol+quadrupol energy correction           -0.000006 eV
 added-field ion interaction          0.000000 eV  (added to PSCEN)


 Free energy of the ion-electron system (eV)
  ---------------------------------------------------
  alpha Z        PSCENC =      1293.09676634
  Ewald energy   TEWEN  =    404356.23868338
  -Hartree energ DENC   =   -445596.25473771
  -exchange      EXHF   =         0.00000000
  -V(xc)+E(xc)   XCENC  =       150.55161003
  PAW double counting   =     47635.98374838   -46198.33769302
  entropy T*S    EENTRO =        -0.52705905
  eigenvalues    EBANDS =     -1255.22677767
  atomic energy  EATOM  =     39329.21466429
  ---------------------------------------------------
  free energy    TOTEN  =      -285.26080096 eV

  energy without entropy =     -284.73374191  energy(sigma->0) =     -284.99727143


--------------------------------------------------------------------------------------------------------




--------------------------------------- Iteration      1(  55)  ---------------------------------------


    POTLOK:  cpu time      0.0573: real time      0.0607
    SETDIJ:  cpu time      0.2293: real time      0.2311
    TRIAL :  cpu time      4.6397: real time      4.6863
    CORREC:  cpu time      1.6502: real time      1.6652
    CHARGE:  cpu time      0.2644: real time      0.2663
    --------------------------------------------
      LOOP:  cpu time      6.8446: real time      6.9133

 eigenvalue-minimisations  :     0
 total energy-change (2. order) :-0.2843706E-04  (-0.5220116E-05)
 number of electron     540.0000018 magnetization 
 augmentation part      168.4018392 magnetization 

 DIPCOR: dipole corrections for dipol
 direction  3 min pos     1,
 dipolmoment           0.000000      0.000000      0.022081 electrons x Angstroem
 Tr[quadrupol]     -6330.639174

 energy correction for charged system         0.000000 eV
 dipol+quadrupol energy correction           -0.000021 eV
 added-field ion interaction          0.000000 eV  (added to PSCEN)


 Free energy of the ion-electron system (eV)
  ---------------------------------------------------
  alpha Z        PSCENC =      1293.09676709
  Ewald energy   TEWEN  =    404356.23868338
  -Hartree energ DENC   =   -445597.87023695
  -exchange      EXHF   =         0.00000000
  -V(xc)+E(xc)   XCENC  =       150.55280955
  PAW double counting   =     47634.54754721   -46196.89206658
  entropy T*S    EENTRO =        -0.52705611
  eigenvalues    EBANDS =     -1253.62193833
  atomic energy  EATOM  =     39329.21466429
  ---------------------------------------------------
  free energy    TOTEN  =      -285.26082940 eV

  energy without entropy =     -284.73377329  energy(sigma->0) =     -284.99730134


--------------------------------------------------------------------------------------------------------




--------------------------------------- Iteration      1(  56)  ---------------------------------------


    POTLOK:  cpu time      0.0584: real time      0.0590
    SETDIJ:  cpu time      0.3550: real time      0.3578
    TRIAL :  cpu time      4.0341: real time      4.0766
    CORREC:  cpu time      1.6562: real time      1.6714
    CHARGE:  cpu time      0.2655: real time      0.2676
    --------------------------------------------
      LOOP:  cpu time      6.3722: real time      6.4354

 eigenvalue-minimisations  :     0
 total energy-change (2. order) :-0.5098598E-05  (-0.4647969E-04)
 number of electron     540.0000018 magnetization 
 augmentation part      168.4042075 magnetization 

 DIPCOR: dipole corrections for dipol
 direction  3 min pos     1,
 dipolmoment           0.000000      0.000000     -0.001665 electrons x Angstroem
 Tr[quadrupol]     -6330.603693

 energy correction for charged system         0.000000 eV
 dipol+quadrupol energy correction           -0.000000 eV
 added-field ion interaction          0.000000 eV  (added to PSCEN)


 Free energy of the ion-electron system (eV)
  ---------------------------------------------------
  alpha Z        PSCENC =      1293.09676719
  Ewald energy   TEWEN  =    404356.23868338
  -Hartree energ DENC   =   -445597.90786506
  -exchange      EXHF   =         0.00000000
  -V(xc)+E(xc)   XCENC  =       150.55303598
  PAW double counting   =     47634.21609618   -46196.55881438
  entropy T*S    EENTRO =        -0.52703188
  eigenvalues    EBANDS =     -1253.58634597
  atomic energy  EATOM  =     39329.21466429
  ---------------------------------------------------
  free energy    TOTEN  =      -285.26083449 eV

  energy without entropy =     -284.73380262  energy(sigma->0) =     -284.99731856


--------------------------------------------------------------------------------------------------------




--------------------------------------- Iteration      1(  57)  ---------------------------------------


    POTLOK:  cpu time      0.0593: real time      0.0599
    SETDIJ:  cpu time      0.2300: real time      0.2318
    TRIAL :  cpu time      4.0367: real time      4.0785
    CORREC:  cpu time      1.6575: real time      1.6732
    CHARGE:  cpu time      0.2651: real time      0.2671
    --------------------------------------------
      LOOP:  cpu time      6.2509: real time      6.3127

 eigenvalue-minimisations  :     0
 total energy-change (2. order) :-0.4743713E-04  (-0.7850080E-05)
 number of electron     540.0000018 magnetization 
 augmentation part      168.4045776 magnetization 

 DIPCOR: dipole corrections for dipol
 direction  3 min pos     1,
 dipolmoment           0.000000      0.000000      0.053115 electrons x Angstroem
 Tr[quadrupol]     -6330.539728

 energy correction for charged system         0.000000 eV
 dipol+quadrupol energy correction           -0.000119 eV
 added-field ion interaction         -0.000000 eV  (added to PSCEN)


 Free energy of the ion-electron system (eV)
  ---------------------------------------------------
  alpha Z        PSCENC =      1293.09676654
  Ewald energy   TEWEN  =    404356.23868338
  -Hartree energ DENC   =   -445596.09998831
  -exchange      EXHF   =         0.00000000
  -V(xc)+E(xc)   XCENC  =       150.55511126
  PAW double counting   =     47630.69219047   -46193.01775740
  entropy T*S    EENTRO =        -0.52703018
  eigenvalues    EBANDS =     -1255.41352027
  atomic energy  EATOM  =     39329.21466429
  ---------------------------------------------------
  free energy    TOTEN  =      -285.26088193 eV

  energy without entropy =     -284.73385175  energy(sigma->0) =     -284.99736684


--------------------------------------------------------------------------------------------------------




--------------------------------------- Iteration      1(  58)  ---------------------------------------


    POTLOK:  cpu time      0.0584: real time      0.0590
    SETDIJ:  cpu time      0.2310: real time      0.2328
    TRIAL :  cpu time      4.0305: real time      4.0834
    CORREC:  cpu time      1.6898: real time      1.7061
    CHARGE:  cpu time      0.2651: real time      0.2670
    --------------------------------------------
      LOOP:  cpu time      6.2771: real time      6.3506

 eigenvalue-minimisations  :     0
 total energy-change (2. order) :-0.7624549E-05  (-0.5409539E-05)
 number of electron     540.0000018 magnetization 
 augmentation part      168.4047860 magnetization 

 DIPCOR: dipole corrections for dipol
 direction  3 min pos     1,
 dipolmoment           0.000000      0.000000     -0.005614 electrons x Angstroem
 Tr[quadrupol]     -6330.605654

 energy correction for charged system         0.000000 eV
 dipol+quadrupol energy correction           -0.000001 eV
 added-field ion interaction          0.000000 eV  (added to PSCEN)


 Free energy of the ion-electron system (eV)
  ---------------------------------------------------
  alpha Z        PSCENC =      1293.09676725
  Ewald energy   TEWEN  =    404356.23868338
  -Hartree energ DENC   =   -445595.95441828
  -exchange      EXHF   =         0.00000000
  -V(xc)+E(xc)   XCENC  =       150.55548394
  PAW double counting   =     47630.11523155   -46192.43810378
  entropy T*S    EENTRO =        -0.52702942
  eigenvalues    EBANDS =     -1255.56216773
  atomic energy  EATOM  =     39329.21466429
  ---------------------------------------------------
  free energy    TOTEN  =      -285.26088956 eV

  energy without entropy =     -284.73386014  energy(sigma->0) =     -284.99737485


--------------------------------------------------------------------------------------------------------




--------------------------------------- Iteration      1(  59)  ---------------------------------------


    POTLOK:  cpu time      0.0579: real time      0.0585
    SETDIJ:  cpu time      0.2331: real time      0.2350
    TRIAL :  cpu time      4.0655: real time      4.1076
    CORREC:  cpu time      1.6562: real time      1.6713
    CHARGE:  cpu time      0.2638: real time      0.2657
    --------------------------------------------
      LOOP:  cpu time      6.2786: real time      6.3402

 eigenvalue-minimisations  :     0
 total energy-change (2. order) :-0.5345588E-05  (-0.6278751E-05)
 number of electron     540.0000018 magnetization 
 augmentation part      168.4049899 magnetization 

 DIPCOR: dipole corrections for dipol
 direction  3 min pos     1,
 dipolmoment           0.000000      0.000000      0.012577 electrons x Angstroem
 Tr[quadrupol]     -6330.683211

 energy correction for charged system         0.000000 eV
 dipol+quadrupol energy correction           -0.000007 eV
 added-field ion interaction          0.000000 eV  (added to PSCEN)


 Free energy of the ion-electron system (eV)
  ---------------------------------------------------
  alpha Z        PSCENC =      1293.09676712
  Ewald energy   TEWEN  =    404356.23868338
  -Hartree energ DENC   =   -445596.70517533
  -exchange      EXHF   =         0.00000000
  -V(xc)+E(xc)   XCENC  =       150.55595781
  PAW double counting   =     47629.61742058   -46191.93863309
  entropy T*S    EENTRO =        -0.52703152
  eigenvalues    EBANDS =     -1254.81355024
  atomic energy  EATOM  =     39329.21466429
  ---------------------------------------------------
  free energy    TOTEN  =      -285.26089490 eV

  energy without entropy =     -284.73386338  energy(sigma->0) =     -284.99737914


--------------------------------------------------------------------------------------------------------




--------------------------------------- Iteration      1(  60)  ---------------------------------------


    POTLOK:  cpu time      0.0582: real time      0.0588
    SETDIJ:  cpu time      0.2318: real time      0.2336
    TRIAL :  cpu time      4.0406: real time      4.0826
    CORREC:  cpu time      1.9478: real time      1.9651
    CHARGE:  cpu time      0.2640: real time      0.2659
    --------------------------------------------
      LOOP:  cpu time      6.5458: real time      6.6095

 eigenvalue-minimisations  :     0
 total energy-change (2. order) :-0.6071226E-05  (-0.4190683E-05)
 number of electron     540.0000018 magnetization 
 augmentation part      168.4049985 magnetization 

 DIPCOR: dipole corrections for dipol
 direction  3 min pos     1,
 dipolmoment           0.000000      0.000000     -0.008797 electrons x Angstroem
 Tr[quadrupol]     -6330.607047

 energy correction for charged system         0.000000 eV
 dipol+quadrupol energy correction           -0.000003 eV
 added-field ion interaction         -0.000000 eV  (added to PSCEN)


 Free energy of the ion-electron system (eV)
  ---------------------------------------------------
  alpha Z        PSCENC =      1293.09676747
  Ewald energy   TEWEN  =    404356.23868338
  -Hartree energ DENC   =   -445597.54927886
  -exchange      EXHF   =         0.00000000
  -V(xc)+E(xc)   XCENC  =       150.55652260
  PAW double counting   =     47628.98154349   -46191.30093191
  entropy T*S    EENTRO =        -0.52703215
  eigenvalues    EBANDS =     -1253.97183990
  atomic energy  EATOM  =     39329.21466429
  ---------------------------------------------------
  free energy    TOTEN  =      -285.26090097 eV

  energy without entropy =     -284.73386882  energy(sigma->0) =     -284.99738490


--------------------------------------------------------------------------------------------------------




--------------------------------------- Iteration      1(  61)  ---------------------------------------


    POTLOK:  cpu time      0.0587: real time      0.0593
    SETDIJ:  cpu time      0.2303: real time      0.2322
    TRIAL :  cpu time      4.0439: real time      4.0863
    CORREC:  cpu time      1.6525: real time      1.6677
    CHARGE:  cpu time      0.2740: real time      0.2761
    --------------------------------------------
      LOOP:  cpu time      6.2624: real time      6.3246

 eigenvalue-minimisations  :     0
 total energy-change (2. order) :-0.4078502E-05  (-0.4950756E-05)
 number of electron     540.0000018 magnetization 
 augmentation part      168.4049394 magnetization 

 DIPCOR: dipole corrections for dipol
 direction  3 min pos     1,
 dipolmoment           0.000000      0.000000      0.009113 electrons x Angstroem
 Tr[quadrupol]     -6330.565646

 energy correction for charged system         0.000000 eV
 dipol+quadrupol energy correction           -0.000004 eV
 added-field ion interaction         -0.000000 eV  (added to PSCEN)


 Free energy of the ion-electron system (eV)
  ---------------------------------------------------
  alpha Z        PSCENC =      1293.09676689
  Ewald energy   TEWEN  =    404356.23868338
  -Hartree energ DENC   =   -445597.31884325
  -exchange      EXHF   =         0.00000000
  -V(xc)+E(xc)   XCENC  =       150.55672639
  PAW double counting   =     47628.47581188   -46190.79439801
  entropy T*S    EENTRO =        -0.52703305
  eigenvalues    EBANDS =     -1254.20328446
  atomic energy  EATOM  =     39329.21466429
  ---------------------------------------------------
  free energy    TOTEN  =      -285.26090505 eV

  energy without entropy =     -284.73387200  energy(sigma->0) =     -284.99738853


--------------------------------------------------------------------------------------------------------




--------------------------------------- Iteration      1(  62)  ---------------------------------------


    POTLOK:  cpu time      0.0587: real time      0.0593
    SETDIJ:  cpu time      0.2302: real time      0.2320
    TRIAL :  cpu time      4.0386: real time      4.0825
    CORREC:  cpu time      1.6487: real time      1.6643
    CHARGE:  cpu time      0.2666: real time      0.2688
    --------------------------------------------
      LOOP:  cpu time      6.2443: real time      6.3083

 eigenvalue-minimisations  :     0
 total energy-change (2. order) :-0.4732625E-05  (-0.1140884E-05)
 number of electron     540.0000018 magnetization 
 augmentation part      168.4048993 magnetization 

 DIPCOR: dipole corrections for dipol
 direction  3 min pos     1,
 dipolmoment           0.000000      0.000000     -0.011606 electrons x Angstroem
 Tr[quadrupol]     -6330.616932

 energy correction for charged system         0.000000 eV
 dipol+quadrupol energy correction           -0.000006 eV
 added-field ion interaction         -0.000000 eV  (added to PSCEN)


 Free energy of the ion-electron system (eV)
  ---------------------------------------------------
  alpha Z        PSCENC =      1293.09676753
  Ewald energy   TEWEN  =    404356.23868338
  -Hartree energ DENC   =   -445596.81610258
  -exchange      EXHF   =         0.00000000
  -V(xc)+E(xc)   XCENC  =       150.55688438
  PAW double counting   =     47627.82936876   -46190.14723074
  entropy T*S    EENTRO =        -0.52703084
  eigenvalues    EBANDS =     -1254.70691175
  atomic energy  EATOM  =     39329.21466429
  ---------------------------------------------------
  free energy    TOTEN  =      -285.26090978 eV

  energy without entropy =     -284.73387895  energy(sigma->0) =     -284.99739437


--------------------------------------------------------------------------------------------------------




--------------------------------------- Iteration      1(  63)  ---------------------------------------


    POTLOK:  cpu time      0.0584: real time      0.0591
    SETDIJ:  cpu time      0.2313: real time      0.2332
    TRIAL :  cpu time      4.0553: real time      4.0999
    CORREC:  cpu time      1.6581: real time      1.6756
    CHARGE:  cpu time      0.2847: real time      0.2870
    --------------------------------------------
      LOOP:  cpu time      6.2898: real time      6.3568

 eigenvalue-minimisations  :     0
 total energy-change (2. order) :-0.1125220E-05  (-0.3586294E-05)
 number of electron     540.0000018 magnetization 
 augmentation part      168.4046235 magnetization 

 DIPCOR: dipole corrections for dipol
 direction  3 min pos     1,
 dipolmoment           0.000000      0.000000      0.000984 electrons x Angstroem
 Tr[quadrupol]     -6330.629618

 energy correction for charged system         0.000000 eV
 dipol+quadrupol energy correction           -0.000000 eV
 added-field ion interaction         -0.000000 eV  (added to PSCEN)


 Free energy of the ion-electron system (eV)
  ---------------------------------------------------
  alpha Z        PSCENC =      1293.09676728
  Ewald energy   TEWEN  =    404356.23868338
  -Hartree energ DENC   =   -445596.95005154
  -exchange      EXHF   =         0.00000000
  -V(xc)+E(xc)   XCENC  =       150.55685265
  PAW double counting   =     47627.80669917   -46190.12471376
  entropy T*S    EENTRO =        -0.52701865
  eigenvalues    EBANDS =     -1254.57278153
  atomic energy  EATOM  =     39329.21466429
  ---------------------------------------------------
  free energy    TOTEN  =      -285.26091091 eV

  energy without entropy =     -284.73389226  energy(sigma->0) =     -284.99740158


--------------------------------------------------------------------------------------------------------




--------------------------------------- Iteration      1(  64)  ---------------------------------------


    POTLOK:  cpu time      0.0584: real time      0.0590
    SETDIJ:  cpu time      0.2304: real time      0.2328
    TRIAL :  cpu time      4.0377: real time      4.0819
    CORREC:  cpu time      2.0998: real time      2.1207
    CHARGE:  cpu time      0.2662: real time      0.2684
    --------------------------------------------
      LOOP:  cpu time      6.6963: real time      6.7665

 eigenvalue-minimisations  :     0
 total energy-change (2. order) :-0.3549932E-05  (-0.3797500E-05)
 number of electron     540.0000018 magnetization 
 augmentation part      168.4040347 magnetization 

 DIPCOR: dipole corrections for dipol
 direction  3 min pos     1,
 dipolmoment           0.000000      0.000000      0.002056 electrons x Angstroem
 Tr[quadrupol]     -6330.605625

 energy correction for charged system         0.000000 eV
 dipol+quadrupol energy correction           -0.000000 eV
 added-field ion interaction          0.000000 eV  (added to PSCEN)


 Free energy of the ion-electron system (eV)
  ---------------------------------------------------
  alpha Z        PSCENC =      1293.09676753
  Ewald energy   TEWEN  =    404356.23868338
  -Hartree energ DENC   =   -445597.62656851
  -exchange      EXHF   =         0.00000000
  -V(xc)+E(xc)   XCENC  =       150.55661011
  PAW double counting   =     47627.64859547   -46189.96763066
  entropy T*S    EENTRO =        -0.52700211
  eigenvalues    EBANDS =     -1253.89501742
  atomic energy  EATOM  =     39329.21466429
  ---------------------------------------------------
  free energy    TOTEN  =      -285.26091446 eV

  energy without entropy =     -284.73391234  energy(sigma->0) =     -284.99741340


--------------------------------------------------------------------------------------------------------




--------------------------------------- Iteration      1(  65)  ---------------------------------------


    POTLOK:  cpu time      0.0580: real time      0.0587
    SETDIJ:  cpu time      0.2325: real time      0.2343
    TRIAL :  cpu time      4.0364: real time      4.0823
    CORREC:  cpu time      1.6544: real time      1.6711
    CHARGE:  cpu time      0.2643: real time      0.2661
    --------------------------------------------
      LOOP:  cpu time      6.2474: real time      6.3144

 eigenvalue-minimisations  :     0
 total energy-change (2. order) :-0.3926179E-05  (-0.1137541E-05)
 number of electron     540.0000018 magnetization 
 augmentation part      168.4038477 magnetization 

 DIPCOR: dipole corrections for dipol
 direction  3 min pos     1,
 dipolmoment           0.000000      0.000000     -0.010887 electrons x Angstroem
 Tr[quadrupol]     -6330.570669

 energy correction for charged system         0.000000 eV
 dipol+quadrupol energy correction           -0.000005 eV
 added-field ion interaction          0.000000 eV  (added to PSCEN)


 Free energy of the ion-electron system (eV)
  ---------------------------------------------------
  alpha Z        PSCENC =      1293.09676719
  Ewald energy   TEWEN  =    404356.23868338
  -Hartree energ DENC   =   -445596.75977538
  -exchange      EXHF   =         0.00000000
  -V(xc)+E(xc)   XCENC  =       150.55586863
  PAW double counting   =     47627.29024827   -46189.61130673
  entropy T*S    EENTRO =        -0.52699789
  eigenvalues    EBANDS =     -1254.75906591
  atomic energy  EATOM  =     39329.21466429
  ---------------------------------------------------
  free energy    TOTEN  =      -285.26091838 eV

  energy without entropy =     -284.73392050  energy(sigma->0) =     -284.99741944


--------------------------------------------------------------------------------------------------------




--------------------------------------- Iteration      1(  66)  ---------------------------------------


    POTLOK:  cpu time      0.0579: real time      0.0586
    SETDIJ:  cpu time      0.2306: real time      0.2324
    TRIAL :  cpu time      4.0398: real time      4.0828
    CORREC:  cpu time      1.6581: real time      1.6738
    CHARGE:  cpu time      0.2767: real time      0.2811
    --------------------------------------------
      LOOP:  cpu time      6.2668: real time      6.3324

 eigenvalue-minimisations  :     0
 total energy-change (2. order) :-0.1058237E-05  (-0.7257897E-05)
 number of electron     540.0000018 magnetization 
 augmentation part      168.4024047 magnetization 

 DIPCOR: dipole corrections for dipol
 direction  3 min pos     1,
 dipolmoment           0.000000      0.000000      0.000344 electrons x Angstroem
 Tr[quadrupol]     -6330.595618

 energy correction for charged system         0.000000 eV
 dipol+quadrupol energy correction           -0.000000 eV
 added-field ion interaction          0.000000 eV  (added to PSCEN)


 Free energy of the ion-electron system (eV)
  ---------------------------------------------------
  alpha Z        PSCENC =      1293.09676753
  Ewald energy   TEWEN  =    404356.23868338
  -Hartree energ DENC   =   -445596.57296263
  -exchange      EXHF   =         0.00000000
  -V(xc)+E(xc)   XCENC  =       150.55565067
  PAW double counting   =     47627.17304635   -46189.49476589
  entropy T*S    EENTRO =        -0.52696997
  eigenvalues    EBANDS =     -1254.94500524
  atomic energy  EATOM  =     39329.21466429
  ---------------------------------------------------
  free energy    TOTEN  =      -285.26091944 eV

  energy without entropy =     -284.73394947  energy(sigma->0) =     -284.99743446


--------------------------------------------------------------------------------------------------------




--------------------------------------- Iteration      1(  67)  ---------------------------------------


    POTLOK:  cpu time      0.0588: real time      0.0594
    SETDIJ:  cpu time      0.2308: real time      0.2330
    TRIAL :  cpu time      4.0387: real time      4.0841
    CORREC:  cpu time      2.2277: real time      2.2477
    CHARGE:  cpu time      0.2664: real time      0.2687
    --------------------------------------------
      LOOP:  cpu time      6.8257: real time      6.8961

 eigenvalue-minimisations  :     0
 total energy-change (2. order) :-0.8262199E-05  (-0.1033963E-05)
 number of electron     540.0000018 magnetization 
 augmentation part      168.4022490 magnetization 

 DIPCOR: dipole corrections for dipol
 direction  3 min pos     1,
 dipolmoment           0.000000      0.000000     -0.005148 electrons x Angstroem
 Tr[quadrupol]     -6330.614811

 energy correction for charged system         0.000000 eV
 dipol+quadrupol energy correction           -0.000001 eV
 added-field ion interaction          0.000000 eV  (added to PSCEN)


 Free energy of the ion-electron system (eV)
  ---------------------------------------------------
  alpha Z        PSCENC =      1293.09676752
  Ewald energy   TEWEN  =    404356.23868338
  -Hartree energ DENC   =   -445596.69616717
  -exchange      EXHF   =         0.00000000
  -V(xc)+E(xc)   XCENC  =       150.55423813
  PAW double counting   =     47626.22116791   -46188.54827541
  entropy T*S    EENTRO =        -0.52696772
  eigenvalues    EBANDS =     -1254.81503637
  atomic energy  EATOM  =     39329.21466429
  ---------------------------------------------------
  free energy    TOTEN  =      -285.26092771 eV

  energy without entropy =     -284.73395998  energy(sigma->0) =     -284.99744385


--------------------------------------------------------------------------------------------------------




--------------------------------------- Iteration      1(  68)  ---------------------------------------


    POTLOK:  cpu time      0.0599: real time      0.0605
    SETDIJ:  cpu time      0.2500: real time      0.2520
    TRIAL :  cpu time      4.0523: real time      4.0993
    CORREC:  cpu time      1.6573: real time      1.6731
    CHARGE:  cpu time      0.2656: real time      0.2678
    --------------------------------------------
      LOOP:  cpu time      6.2877: real time      6.3554

 eigenvalue-minimisations  :     0
 total energy-change (2. order) :-0.9913638E-06  (-0.3155921E-05)
 number of electron     540.0000018 magnetization 
 augmentation part      168.4016726 magnetization 

 DIPCOR: dipole corrections for dipol
 direction  3 min pos     1,
 dipolmoment           0.000000      0.000000     -0.000240 electrons x Angstroem
 Tr[quadrupol]     -6330.656213

 energy correction for charged system         0.000000 eV
 dipol+quadrupol energy correction           -0.000000 eV
 added-field ion interaction          0.000000 eV  (added to PSCEN)


 Free energy of the ion-electron system (eV)
  ---------------------------------------------------
  alpha Z        PSCENC =      1293.09676735
  Ewald energy   TEWEN  =    404356.23868338
  -Hartree energ DENC   =   -445596.94051123
  -exchange      EXHF   =         0.00000000
  -V(xc)+E(xc)   XCENC  =       150.55412715
  PAW double counting   =     47626.09414243   -46188.42194380
  entropy T*S    EENTRO =        -0.52696245
  eigenvalues    EBANDS =     -1254.56989054
  atomic energy  EATOM  =     39329.21466429
  ---------------------------------------------------
  free energy    TOTEN  =      -285.26092870 eV

  energy without entropy =     -284.73396625  energy(sigma->0) =     -284.99744747


--------------------------------------------------------------------------------------------------------




--------------------------------------- Iteration      1(  69)  ---------------------------------------


    POTLOK:  cpu time      0.0582: real time      0.0589
    SETDIJ:  cpu time      0.2308: real time      0.2327
    TRIAL :  cpu time      4.1852: real time      4.2303
    CORREC:  cpu time      1.6534: real time      1.6696
    CHARGE:  cpu time      0.2655: real time      0.2679
    --------------------------------------------
      LOOP:  cpu time      6.3947: real time      6.4609

 eigenvalue-minimisations  :     0
 total energy-change (2. order) :-0.3036264E-05  (-0.1129807E-05)
 number of electron     540.0000018 magnetization 
 augmentation part      168.4014778 magnetization 

 DIPCOR: dipole corrections for dipol
 direction  3 min pos     1,
 dipolmoment           0.000000      0.000000      0.006944 electrons x Angstroem
 Tr[quadrupol]     -6330.628147

 energy correction for charged system         0.000000 eV
 dipol+quadrupol energy correction           -0.000002 eV
 added-field ion interaction          0.000000 eV  (added to PSCEN)


 Free energy of the ion-electron system (eV)
  ---------------------------------------------------
  alpha Z        PSCENC =      1293.09676749
  Ewald energy   TEWEN  =    404356.23868338
  -Hartree energ DENC   =   -445597.93105089
  -exchange      EXHF   =         0.00000000
  -V(xc)+E(xc)   XCENC  =       150.55374050
  PAW double counting   =     47625.59246222   -46187.92296517
  entropy T*S    EENTRO =        -0.52696061
  eigenvalues    EBANDS =     -1253.57627111
  atomic energy  EATOM  =     39329.21466429
  ---------------------------------------------------
  free energy    TOTEN  =      -285.26093173 eV

  energy without entropy =     -284.73397113  energy(sigma->0) =     -284.99745143


--------------------------------------------------------------------------------------------------------




--------------------------------------- Iteration      1(  70)  ---------------------------------------


    POTLOK:  cpu time      0.0588: real time      0.0594
    SETDIJ:  cpu time      0.2418: real time      0.2438
    TRIAL :  cpu time      4.0306: real time      4.0751
    CORREC:  cpu time      1.6585: real time      1.6746
    CHARGE:  cpu time      0.2653: real time      0.2673
    --------------------------------------------
      LOOP:  cpu time      6.2577: real time      6.3229

 eigenvalue-minimisations  :     0
 total energy-change (2. order) :-0.1064123E-05  (-0.2201778E-05)
 number of electron     540.0000018 magnetization 
 augmentation part      168.4010893 magnetization 

 DIPCOR: dipole corrections for dipol
 direction  3 min pos     1,
 dipolmoment           0.000000      0.000000     -0.001265 electrons x Angstroem
 Tr[quadrupol]     -6330.590958

 energy correction for charged system         0.000000 eV
 dipol+quadrupol energy correction           -0.000000 eV
 added-field ion interaction         -0.000000 eV  (added to PSCEN)


 Free energy of the ion-electron system (eV)
  ---------------------------------------------------
  alpha Z        PSCENC =      1293.09676743
  Ewald energy   TEWEN  =    404356.23868338
  -Hartree energ DENC   =   -445597.84065538
  -exchange      EXHF   =         0.00000000
  -V(xc)+E(xc)   XCENC  =       150.55355346
  PAW double counting   =     47625.40619175   -46187.73763768
  entropy T*S    EENTRO =        -0.52695684
  eigenvalues    EBANDS =     -1253.66553944
  atomic energy  EATOM  =     39329.21466429
  ---------------------------------------------------
  free energy    TOTEN  =      -285.26093280 eV

  energy without entropy =     -284.73397595  energy(sigma->0) =     -284.99745438


--------------------------------------------------------------------------------------------------------




--------------------------------------- Iteration      1(  71)  ---------------------------------------


    POTLOK:  cpu time      0.0582: real time      0.0587
    SETDIJ:  cpu time      0.2385: real time      0.2410
    TRIAL :  cpu time      4.0296: real time      4.0731
    CORREC:  cpu time      1.6536: real time      1.6702
    CHARGE:  cpu time      0.2636: real time      0.2657
    --------------------------------------------
      LOOP:  cpu time      6.2459: real time      6.3111

 eigenvalue-minimisations  :     0
 total energy-change (2. order) :-0.2090848E-05  (-0.3341875E-06)
 number of electron     540.0000018 magnetization 
 augmentation part      168.4010502 magnetization 

 DIPCOR: dipole corrections for dipol
 direction  3 min pos     1,
 dipolmoment           0.000000      0.000000     -0.005212 electrons x Angstroem
 Tr[quadrupol]     -6330.611925

 energy correction for charged system         0.000000 eV
 dipol+quadrupol energy correction           -0.000001 eV
 added-field ion interaction         -0.000000 eV  (added to PSCEN)


 Free energy of the ion-electron system (eV)
  ---------------------------------------------------
  alpha Z        PSCENC =      1293.09676752
  Ewald energy   TEWEN  =    404356.23868338
  -Hartree energ DENC   =   -445597.26755906
  -exchange      EXHF   =         0.00000000
  -V(xc)+E(xc)   XCENC  =       150.55312299
  PAW double counting   =     47625.01440381   -46187.34777952
  entropy T*S    EENTRO =        -0.52695488
  eigenvalues    EBANDS =     -1254.23628146
  atomic energy  EATOM  =     39329.21466429
  ---------------------------------------------------
  free energy    TOTEN  =      -285.26093489 eV

  energy without entropy =     -284.73398001  energy(sigma->0) =     -284.99745745


--------------------------------------------------------------------------------------------------------




--------------------------------------- Iteration      1(  72)  ---------------------------------------


    POTLOK:  cpu time      0.0587: real time      0.0593
    SETDIJ:  cpu time      0.2311: real time      0.2330
    TRIAL :  cpu time      4.0392: real time      4.0834
    CORREC:  cpu time      1.6796: real time      1.6968
    CHARGE:  cpu time      0.2642: real time      0.2661
    --------------------------------------------
      LOOP:  cpu time      6.2764: real time      6.3421

 eigenvalue-minimisations  :     0
 total energy-change (2. order) :-0.3217574E-06  (-0.4219639E-05)
 number of electron     540.0000018 magnetization 
 augmentation part      168.4006800 magnetization 

 DIPCOR: dipole corrections for dipol
 direction  3 min pos     1,
 dipolmoment           0.000000      0.000000     -0.001638 electrons x Angstroem
 Tr[quadrupol]     -6330.613431

 energy correction for charged system         0.000000 eV
 dipol+quadrupol energy correction           -0.000000 eV
 added-field ion interaction         -0.000000 eV  (added to PSCEN)


 Free energy of the ion-electron system (eV)
  ---------------------------------------------------
  alpha Z        PSCENC =      1293.09676749
  Ewald energy   TEWEN  =    404356.23868338
  -Hartree energ DENC   =   -445597.22095477
  -exchange      EXHF   =         0.00000000
  -V(xc)+E(xc)   XCENC  =       150.55306962
  PAW double counting   =     47624.95658218   -46187.29022978
  entropy T*S    EENTRO =        -0.52692024
  eigenvalues    EBANDS =     -1254.28256273
  atomic energy  EATOM  =     39329.21466429
  ---------------------------------------------------
  free energy    TOTEN  =      -285.26093521 eV

  energy without entropy =     -284.73401497  energy(sigma->0) =     -284.99747509


--------------------------------------------------------------------------------------------------------




--------------------------------------- Iteration      1(  73)  ---------------------------------------


    POTLOK:  cpu time      0.0592: real time      0.0599
    SETDIJ:  cpu time      0.2300: real time      0.2318
    TRIAL :  cpu time      4.0575: real time      4.1024
    CORREC:  cpu time      1.6530: real time      1.6686
    CHARGE:  cpu time      0.2653: real time      0.2672
    --------------------------------------------
      LOOP:  cpu time      6.2684: real time      6.3334

 eigenvalue-minimisations  :     0
 total energy-change (2. order) :-0.4428482E-05  (-0.1209561E-05)
 number of electron     540.0000018 magnetization 
 augmentation part      168.4005965 magnetization 

 DIPCOR: dipole corrections for dipol
 direction  3 min pos     1,
 dipolmoment           0.000000      0.000000      0.017772 electrons x Angstroem
 Tr[quadrupol]     -6330.592754

 energy correction for charged system         0.000000 eV
 dipol+quadrupol energy correction           -0.000013 eV
 added-field ion interaction         -0.000000 eV  (added to PSCEN)


 Free energy of the ion-electron system (eV)
  ---------------------------------------------------
  alpha Z        PSCENC =      1293.09676726
  Ewald energy   TEWEN  =    404356.23868338
  -Hartree energ DENC   =   -445597.02426389
  -exchange      EXHF   =         0.00000000
  -V(xc)+E(xc)   XCENC  =       150.55245093
  PAW double counting   =     47624.16487502   -46186.50215030
  entropy T*S    EENTRO =        -0.52691273
  eigenvalues    EBANDS =     -1254.47504609
  atomic energy  EATOM  =     39329.21466429
  ---------------------------------------------------
  free energy    TOTEN  =      -285.26093964 eV

  energy without entropy =     -284.73402691  energy(sigma->0) =     -284.99748327


--------------------------------------------------------------------------------------------------------




--------------------------------------- Iteration      1(  74)  ---------------------------------------


    POTLOK:  cpu time      0.0584: real time      0.0590
    SETDIJ:  cpu time      0.2310: real time      0.2329
    TRIAL :  cpu time      4.1156: real time      4.1633
    CORREC:  cpu time      1.8520: real time      1.8696
    CHARGE:  cpu time      0.2653: real time      0.2673
    --------------------------------------------
      LOOP:  cpu time      6.5246: real time      6.5942

 eigenvalue-minimisations  :     0
 total energy-change (2. order) :-0.1181157E-05  (-0.1804562E-05)
 number of electron     540.0000018 magnetization 
 augmentation part      168.4006608 magnetization 

 DIPCOR: dipole corrections for dipol
 direction  3 min pos     1,
 dipolmoment           0.000000      0.000000      0.000673 electrons x Angstroem
 Tr[quadrupol]     -6330.600720

 energy correction for charged system         0.000000 eV
 dipol+quadrupol energy correction           -0.000000 eV
 added-field ion interaction          0.000000 eV  (added to PSCEN)


 Free energy of the ion-electron system (eV)
  ---------------------------------------------------
  alpha Z        PSCENC =      1293.09676753
  Ewald energy   TEWEN  =    404356.23868338
  -Hartree energ DENC   =   -445596.94695396
  -exchange      EXHF   =         0.00000000
  -V(xc)+E(xc)   XCENC  =       150.55230992
  PAW double counting   =     47623.96541884   -46186.30360150
  entropy T*S    EENTRO =        -0.52691047
  eigenvalues    EBANDS =     -1254.55131659
  atomic energy  EATOM  =     39329.21466429
  ---------------------------------------------------
  free energy    TOTEN  =      -285.26094082 eV

  energy without entropy =     -284.73403035  energy(sigma->0) =     -284.99748559


--------------------------------------------------------------------------------------------------------




--------------------------------------- Iteration      1(  75)  ---------------------------------------


    POTLOK:  cpu time      0.0592: real time      0.0597
    SETDIJ:  cpu time      0.2314: real time      0.2335
    TRIAL :  cpu time      4.0441: real time      4.0881
    CORREC:  cpu time      1.6527: real time      1.6687
    CHARGE:  cpu time      0.2644: real time      0.2665
    --------------------------------------------
      LOOP:  cpu time      6.2553: real time      6.3201

 eigenvalue-minimisations  :     0
 total energy-change (2. order) :-0.1674649E-05  (-0.4692367E-06)
 number of electron     540.0000018 magnetization 
 augmentation part      168.4006999 magnetization 

 DIPCOR: dipole corrections for dipol
 direction  3 min pos     1,
 dipolmoment           0.000000      0.000000     -0.009862 electrons x Angstroem
 Tr[quadrupol]     -6330.580266

 energy correction for charged system         0.000000 eV
 dipol+quadrupol energy correction           -0.000004 eV
 added-field ion interaction          0.000000 eV  (added to PSCEN)


 Free energy of the ion-electron system (eV)
  ---------------------------------------------------
  alpha Z        PSCENC =      1293.09676746
  Ewald energy   TEWEN  =    404356.23868338
  -Hartree energ DENC   =   -445596.38549085
  -exchange      EXHF   =         0.00000000
  -V(xc)+E(xc)   XCENC  =       150.55243163
  PAW double counting   =     47623.73226088   -46186.07140816
  entropy T*S    EENTRO =        -0.52691068
  eigenvalues    EBANDS =     -1255.11194066
  atomic energy  EATOM  =     39329.21466429
  ---------------------------------------------------
  free energy    TOTEN  =      -285.26094249 eV

  energy without entropy =     -284.73403181  energy(sigma->0) =     -284.99748715


--------------------------------------------------------------------------------------------------------




--------------------------------------- Iteration      1(  76)  ---------------------------------------


    POTLOK:  cpu time      0.0586: real time      0.0592
    SETDIJ:  cpu time      0.2316: real time      0.2334
    TRIAL :  cpu time      4.0406: real time      4.0838
    CORREC:  cpu time      1.6490: real time      1.6648
    EDDIAG:  cpu time      0.9728: real time      0.9811
    CHARGE:  cpu time      0.2699: real time      0.2721
    --------------------------------------------
      LOOP:  cpu time      7.2254: real time      7.2974

 eigenvalue-minimisations  :     0
 total energy-change (2. order) :-0.5061302E-06  (-0.9157936E-06)
 number of electron     540.0000018 magnetization 
 augmentation part      168.4008293 magnetization 

 DIPCOR: dipole corrections for dipol
 direction  3 min pos     1,
 dipolmoment           0.000000      0.000000     -0.003298 electrons x Angstroem
 Tr[quadrupol]     -6330.613686

 energy correction for charged system         0.000000 eV
 dipol+quadrupol energy correction           -0.000000 eV
 added-field ion interaction         -0.000000 eV  (added to PSCEN)


 Free energy of the ion-electron system (eV)
  ---------------------------------------------------
  alpha Z        PSCENC =      1293.09676752
  Ewald energy   TEWEN  =    404356.23868338
  -Hartree energ DENC   =   -445596.33300389
  -exchange      EXHF   =         0.00000000
  -V(xc)+E(xc)   XCENC  =       150.55251671
  PAW double counting   =     47623.66446782   -46186.00389725
  entropy T*S    EENTRO =        -0.52691150
  eigenvalues    EBANDS =     -1255.16423090
  atomic energy  EATOM  =     39329.21466429
  ---------------------------------------------------
  free energy    TOTEN  =      -285.26094300 eV

  energy without entropy =     -284.73403150  energy(sigma->0) =     -284.99748725


--------------------------------------------------------------------------------------------------------


  average scaling for gradient   0.7516


 average (electrostatic) potential at core
  the test charge radii are     1.2059
  (the norm of the test charge is              1.0000)
       1 -73.2824       2 -73.2312       3 -73.2825       4 -72.7800       5 -73.2246
       6 -72.7895       7 -73.2833       8 -73.2310       9 -73.2825      10 -72.7801
      11 -73.2246      12 -72.7895      13 -73.2832      14 -73.2308      15 -73.2824
      16 -72.7802      17 -73.2249      18 -72.7895      19 -73.2835      20 -73.2311
      21 -73.2821      22 -72.7800      23 -73.2247      24 -72.7893      25 -73.2835
      26 -72.7895      27 -73.2249      28 -72.7801      29 -72.7801      30 -73.2247
      31 -72.7894      32 -73.2833      33 -73.2310      34 -73.2826      35 -72.7802
      36 -73.2249      37 -72.7895      38 -73.2836      39 -73.2311      40 -73.2831
      41 -73.2823      42 -73.2248      43 -72.7894      44 -73.2834      45 -73.2312
      46 -73.2826      47 -72.7800      48 -73.2247      49 -72.7895      50 -73.2834
      51 -73.2309      52 -73.2825      53 -72.7801      54 -73.2311



 E-fermi :   0.7882     XC(G=0):  -5.7845     alpha+bet : -6.3118

 val. band max:        0.7728604324   @ k =  -0.4000   0.4000   0.0000
 cond. band min:       0.7897474388   @ k =   0.4000   0.4000   0.0000
 fundamental gap:      0.0168870063
 Fermi energy:         0.7881665244

 k-point     1 :       0.0000    0.0000    0.0000
  band No.  band energies     occupation 
      1      -8.5704      2.00000
      2      -7.8620      2.00000
      3      -6.9526      2.00000
      4      -6.2043      2.00000
      5      -6.0177      2.00000
      6      -6.0177      2.00000
      7      -6.0176      2.00000
      8      -6.0176      2.00000
      9      -6.0176      2.00000
     10      -6.0176      2.00000
     11      -5.8287      2.00000
     12      -5.7958      2.00000
     13      -5.5880      2.00000
     14      -5.5880      2.00000
     15      -5.5880      2.00000
     16      -5.5880      2.00000
     17      -5.5880      2.00000
     18      -5.5880      2.00000
     19      -5.3220      2.00000
     20      -5.3220      2.00000
     21      -5.3220      2.00000
     22      -5.3219      2.00000
     23      -5.3219      2.00000
     24      -5.3219      2.00000
     25      -5.0138      2.00000
     26      -5.0138      2.00000
     27      -5.0138      2.00000
     28      -5.0138      2.00000
     29      -5.0138      2.00000
     30      -5.0138      2.00000
     31      -4.7166      2.00000
     32      -4.7166      2.00000
     33      -4.7166      2.00000
     34      -4.7165      2.00000
     35      -4.7165      2.00000
     36      -4.7165      2.00000
     37      -4.5868      2.00000
     38      -4.5868      2.00000
     39      -4.5868      2.00000
     40      -4.5868      2.00000
     41      -4.5868      2.00000
     42      -4.5868      2.00000
     43      -4.4343      2.00000
     44      -4.4343      2.00000
     45      -4.4337      2.00000
     46      -4.4337      2.00000
     47      -4.4252      2.00000
     48      -4.4252      2.00000
     49      -4.3552      2.00000
     50      -4.3552      2.00000
     51      -4.3552      2.00000
     52      -4.3552      2.00000
     53      -4.3552      2.00000
     54      -4.3552      2.00000
     55      -4.2023      2.00000
     56      -4.2023      2.00000
     57      -4.2023      2.00000
     58      -4.2023      2.00000
     59      -4.2022      2.00000
     60      -4.2022      2.00000
     61      -4.0707      2.00000
     62      -4.0707      2.00000
     63      -3.9774      2.00000
     64      -3.9774      2.00000
     65      -3.9764      2.00000
     66      -3.9764      2.00000
     67      -3.7522      2.00000
     68      -3.7522      2.00000
     69      -3.6428      2.00000
     70      -3.6428      2.00000
     71      -3.6374      2.00000
     72      -3.6374      2.00000
     73      -3.6209      2.00000
     74      -3.6208      2.00000
     75      -3.6208      2.00000
     76      -3.6208      2.00000
     77      -3.6208      2.00000
     78      -3.6208      2.00000
     79      -3.3715      2.00000
     80      -3.3715      2.00000
     81      -3.3650      2.00000
     82      -3.3650      2.00000
     83      -3.0690      2.00000
     84      -3.0690      2.00000
     85      -3.0690      2.00000
     86      -3.0690      2.00000
     87      -3.0690      2.00000
     88      -3.0689      2.00000
     89      -2.8669      2.00000
     90      -2.8467      2.00000
     91      -2.8176      2.00000
     92      -2.8176      2.00000
     93      -2.8176      2.00000
     94      -2.8176      2.00000
     95      -2.8176      2.00000
     96      -2.8176      2.00000
     97      -2.7743      2.00000
     98      -2.7743      2.00000
     99      -2.7720      2.00000
    100      -2.7720      2.00000
    101      -2.6784      2.00000
    102      -2.6784      2.00000
    103      -2.6774      2.00000
    104      -2.6774      2.00000
    105      -2.5880      2.00000
    106      -2.5880      2.00000
    107      -2.5493      2.00000
    108      -2.5295      2.00000
    109      -2.5295      2.00000
    110      -2.5295      2.00000
    111      -2.5295      2.00000
    112      -2.5295      2.00000
    113      -2.5295      2.00000
    114      -2.5107      2.00000
    115      -2.5107      2.00000
    116      -2.4785      2.00000
    117      -2.4785      2.00000
    118      -2.4250      2.00000
    119      -2.4249      2.00000
    120      -2.4249      2.00000
    121      -2.4249      2.00000
    122      -2.4249      2.00000
    123      -2.4249      2.00000
    124      -2.3854      2.00000
    125      -2.3854      2.00000
    126      -2.3495      2.00000
    127      -2.3495      2.00000
    128      -2.3495      2.00000
    129      -2.3495      2.00000
    130      -2.3495      2.00000
    131      -2.3494      2.00000
    132      -2.3437      2.00000
    133      -2.3436      2.00000
    134      -2.3436      2.00000
    135      -2.3436      2.00000
    136      -2.3436      2.00000
    137      -2.3435      2.00000
    138      -2.1187      2.00000
    139      -2.0647      2.00000
    140      -2.0647      2.00000
    141      -2.0285      2.00000
    142      -2.0285      2.00000
    143      -1.9794      2.00000
    144      -1.9794      2.00000
    145      -1.9794      2.00000
    146      -1.9793      2.00000
    147      -1.9793      2.00000
    148      -1.9793      2.00000
    149      -1.9517      2.00000
    150      -1.9517      2.00000
    151      -1.9428      2.00000
    152      -1.9428      2.00000
    153      -1.8922      2.00000
    154      -1.8922      2.00000
    155      -1.8827      2.00000
    156      -1.8827      2.00000
    157      -1.8524      2.00000
    158      -1.8524      2.00000
    159      -1.8524      2.00000
    160      -1.8523      2.00000
    161      -1.8523      2.00000
    162      -1.8523      2.00000
    163      -1.4188      2.00000
    164      -1.4188      2.00000
    165      -1.4188      2.00000
    166      -1.4188      2.00000
    167      -1.4188      2.00000
    168      -1.4188      2.00000
    169      -1.2154      2.00000
    170      -1.2154      2.00000
    171      -1.2154      2.00000
    172      -1.2154      2.00000
    173      -1.2154      2.00000
    174      -1.2154      2.00000
    175      -1.1282      2.00000
    176      -1.1282      2.00000
    177      -1.1281      2.00000
    178      -1.1281      2.00000
    179      -1.1281      2.00000
    180      -1.1281      2.00000
    181      -1.0725      2.00000
    182      -1.0725      2.00000
    183      -1.0690      2.00000
    184      -1.0690      2.00000
    185      -1.0501      2.00000
    186      -1.0501      2.00000
    187      -1.0282      2.00000
    188      -0.9764      2.00000
    189      -0.9764      2.00000
    190      -0.9764      2.00000
    191      -0.9764      2.00000
    192      -0.9764      2.00000
    193      -0.9764      2.00000
    194      -0.7489      2.00000
    195      -0.7489      2.00000
    196      -0.6859      2.00000
    197      -0.6859      2.00000
    198      -0.6789      2.00000
    199      -0.6789      2.00000
    200      -0.6669      2.00000
    201      -0.6669      2.00000
    202      -0.6320      2.00000
    203      -0.6320      2.00000
    204      -0.6320      2.00000
    205      -0.6320      2.00000
    206      -0.6320      2.00000
    207      -0.6320      2.00000
    208      -0.3868      2.00000
    209      -0.3868      2.00000
    210      -0.2527      2.00000
    211      -0.2527      2.00000
    212      -0.2527      2.00000
    213      -0.2527      2.00000
    214      -0.2527      2.00000
    215      -0.2527      2.00000
    216      -0.1996      2.00000
    217      -0.1996      2.00000
    218      -0.1996      2.00000
    219      -0.1996      2.00000
    220      -0.1996      2.00000
    221      -0.1996      2.00000
    222      -0.1458      2.00000
    223      -0.1458      2.00000
    224      -0.1458      2.00000
    225      -0.1458      2.00000
    226      -0.1458      2.00000
    227      -0.1457      2.00000
    228      -0.1004      2.00000
    229      -0.1003      2.00000
    230      -0.1003      2.00000
    231      -0.1003      2.00000
    232      -0.1003      2.00000
    233      -0.1003      2.00000
    234       0.0799      2.00000
    235       0.0799      2.00000
    236       0.0974      2.00000
    237       0.0974      2.00000
    238       0.0975      2.00000
    239       0.0975      2.00000
    240       0.0975      2.00000
    241       0.0975      2.00000
    242       0.1936      2.00000
    243       0.1936      2.00000
    244       0.1936      2.00000
    245       0.1936      2.00000
    246       0.1936      2.00000
    247       0.1936      2.00000
    248       0.2802      2.00000
    249       0.2802      2.00000
    250       0.2802      2.00000
    251       0.2802      2.00000
    252       0.2802      2.00000
    253       0.2802      2.00000
    254       0.2899      2.00000
    255       0.2899      2.00000
    256       0.2945      2.00000
    257       0.2945      2.00000
    258       0.3280      2.00000
    259       0.3280      2.00000
    260       0.3281      2.00000
    261       0.3281      2.00000
    262       0.3281      2.00000
    263       0.3281      2.00000
    264       0.3922      2.00000
    265       0.3922      2.00000
    266       0.3922      2.00000
    267       0.3922      2.00000
    268       0.3922      2.00000
    269       0.3922      2.00000
    270       0.4137      2.00000
    271       0.4137      2.00000
    272       0.5680      1.99810
    273       0.5685      1.99809
    274       0.5698      1.99808
    275       0.5698      1.99805
    276       0.5756      1.99734
    277       0.5760      1.99729
    278       0.6304      1.97453
    279       0.6304      1.97453
    280       0.6359      1.96868
    281       0.6359      1.96868
    282       0.6359      1.96868
    283       0.6359      1.96868
    284       0.6359      1.96868
    285       0.6359      1.96868
    286       0.7961      0.91199
    287       0.7961      0.91197
    288       0.9340      0.03939
    289       0.9340      0.03938
    290       0.9340      0.03938
    291       0.9341      0.03938
    292       0.9341      0.03937
    293       0.9341      0.03937
    294       0.9385      0.03339
    295       1.4273      0.00000
    296       1.5556      0.00000
    297       1.5556      0.00000
    298       1.5556      0.00000
    299       1.5556      0.00000
    300       1.5556      0.00000
    301       1.5556      0.00000
    302       3.1254      0.00000
    303       3.1254      0.00000
    304       3.1254      0.00000
    305       3.1254      0.00000
    306       3.1254      0.00000
    307       3.1254      0.00000
    308       4.7661      0.00000
    309       4.7661      0.00000
    310       4.7662      0.00000
    311       4.7664      0.00000
    312       4.7664      0.00000
    313       4.7673      0.00000
    314       5.2525      0.00000
    315       5.2564      0.00000
    316       5.2914      0.00000
    317       5.2920      0.00000
    318       5.3079      0.00000
    319       5.3414      0.00000
    320       5.9922      0.00000
    321       6.0143      0.00000
    322       6.0222      0.00000
    323       6.0619      0.00000
    324       6.2800      0.00000

 k-point     2 :       0.2000    0.0000    0.0000
  band No.  band energies     occupation 
      1      -8.4207      2.00000
      2      -7.7158      2.00000
      3      -6.8071      2.00000
      4      -6.5847      2.00000
      5      -6.1517      2.00000
      6      -6.1517      2.00000
      7      -6.0586      2.00000
      8      -6.0559      2.00000
      9      -5.8161      2.00000
     10      -5.7727      2.00000
     11      -5.7727      2.00000
     12      -5.7004      2.00000
     13      -5.7004      2.00000
     14      -5.6883      2.00000
     15      -5.6516      2.00000
     16      -5.4551      2.00000
     17      -5.4203      2.00000
     18      -5.3471      2.00000
     19      -5.3471      2.00000
     20      -5.3283      2.00000
     21      -5.2580      2.00000
     22      -5.2580      2.00000
     23      -5.2344      2.00000
     24      -5.2344      2.00000
     25      -5.1167      2.00000
     26      -4.9850      2.00000
     27      -4.9713      2.00000
     28      -4.9713      2.00000
     29      -4.9419      2.00000
     30      -4.8576      2.00000
     31      -4.8576      2.00000
     32      -4.8039      2.00000
     33      -4.8039      2.00000
     34      -4.7096      2.00000
     35      -4.7096      2.00000
     36      -4.6679      2.00000
     37      -4.6108      2.00000
     38      -4.6108      2.00000
     39      -4.5760      2.00000
     40      -4.5488      2.00000
     41      -4.5449      2.00000
     42      -4.5449      2.00000
     43      -4.5111      2.00000
     44      -4.5111      2.00000
     45      -4.4359      2.00000
     46      -4.4326      2.00000
     47      -4.4326      2.00000
     48      -4.4031      2.00000
     49      -4.3754      2.00000
     50      -4.3754      2.00000
     51      -4.3410      2.00000
     52      -4.3410      2.00000
     53      -4.2687      2.00000
     54      -4.2687      2.00000
     55      -4.2453      2.00000
     56      -4.2453      2.00000
     57      -4.2044      2.00000
     58      -4.1449      2.00000
     59      -4.1449      2.00000
     60      -4.0297      2.00000
     61      -4.0297      2.00000
     62      -4.0149      2.00000
     63      -4.0149      2.00000
     64      -4.0070      2.00000
     65      -4.0069      2.00000
     66      -3.8387      2.00000
     67      -3.7681      2.00000
     68      -3.7263      2.00000
     69      -3.7263      2.00000
     70      -3.6982      2.00000
     71      -3.6982      2.00000
     72      -3.6705      2.00000
     73      -3.6705      2.00000
     74      -3.6121      2.00000
     75      -3.6121      2.00000
     76      -3.5468      2.00000
     77      -3.5468      2.00000
     78      -3.4400      2.00000
     79      -3.4400      2.00000
     80      -3.4311      2.00000
     81      -3.3552      2.00000
     82      -3.3552      2.00000
     83      -3.2220      2.00000
     84      -3.1825      2.00000
     85      -3.1825      2.00000
     86      -3.1594      2.00000
     87      -3.1594      2.00000
     88      -3.1414      2.00000
     89      -3.0573      2.00000
     90      -3.0573      2.00000
     91      -3.0393      2.00000
     92      -3.0078      2.00000
     93      -2.9927      2.00000
     94      -2.9927      2.00000
     95      -2.9693      2.00000
     96      -2.8668      2.00000
     97      -2.8668      2.00000
     98      -2.7966      2.00000
     99      -2.7876      2.00000
    100      -2.7876      2.00000
    101      -2.7750      2.00000
    102      -2.7701      2.00000
    103      -2.7701      2.00000
    104      -2.7281      2.00000
    105      -2.6805      2.00000
    106      -2.6511      2.00000
    107      -2.6422      2.00000
    108      -2.6422      2.00000
    109      -2.5767      2.00000
    110      -2.5709      2.00000
    111      -2.5633      2.00000
    112      -2.5633      2.00000
    113      -2.5612      2.00000
    114      -2.5612      2.00000
    115      -2.5368      2.00000
    116      -2.5195      2.00000
    117      -2.5195      2.00000
    118      -2.5165      2.00000
    119      -2.4728      2.00000
    120      -2.4718      2.00000
    121      -2.4659      2.00000
    122      -2.4659      2.00000
    123      -2.3894      2.00000
    124      -2.3894      2.00000
    125      -2.3704      2.00000
    126      -2.3392      2.00000
    127      -2.3392      2.00000
    128      -2.3349      2.00000
    129      -2.3318      2.00000
    130      -2.3150      2.00000
    131      -2.2875      2.00000
    132      -2.2587      2.00000
    133      -2.2587      2.00000
    134      -2.2229      2.00000
    135      -2.2229      2.00000
    136      -2.2125      2.00000
    137      -2.2068      2.00000
    138      -2.1679      2.00000
    139      -2.1560      2.00000
    140      -2.1560      2.00000
    141      -2.1305      2.00000
    142      -2.0397      2.00000
    143      -2.0397      2.00000
    144      -2.0257      2.00000
    145      -1.9983      2.00000
    146      -1.9974      2.00000
    147      -1.9974      2.00000
    148      -1.9705      2.00000
    149      -1.9594      2.00000
    150      -1.9594      2.00000
    151      -1.9506      2.00000
    152      -1.9506      2.00000
    153      -1.9472      2.00000
    154      -1.9271      2.00000
    155      -1.8601      2.00000
    156      -1.8219      2.00000
    157      -1.8219      2.00000
    158      -1.7861      2.00000
    159      -1.7861      2.00000
    160      -1.7603      2.00000
    161      -1.7301      2.00000
    162      -1.7215      2.00000
    163      -1.7215      2.00000
    164      -1.7094      2.00000
    165      -1.6691      2.00000
    166      -1.6691      2.00000
    167      -1.6441      2.00000
    168      -1.6441      2.00000
    169      -1.5580      2.00000
    170      -1.5580      2.00000
    171      -1.4717      2.00000
    172      -1.3874      2.00000
    173      -1.3874      2.00000
    174      -1.3834      2.00000
    175      -1.3834      2.00000
    176      -1.3647      2.00000
    177      -1.3408      2.00000
    178      -1.2290      2.00000
    179      -1.1453      2.00000
    180      -1.1453      2.00000
    181      -1.1306      2.00000
    182      -1.1306      2.00000
    183      -1.1017      2.00000
    184      -1.1017      2.00000
    185      -1.0889      2.00000
    186      -0.9560      2.00000
    187      -0.9355      2.00000
    188      -0.9355      2.00000
    189      -0.9125      2.00000
    190      -0.8983      2.00000
    191      -0.8983      2.00000
    192      -0.8974      2.00000
    193      -0.8940      2.00000
    194      -0.8940      2.00000
    195      -0.8818      2.00000
    196      -0.8043      2.00000
    197      -0.8043      2.00000
    198      -0.7799      2.00000
    199      -0.7494      2.00000
    200      -0.7494      2.00000
    201      -0.6811      2.00000
    202      -0.6526      2.00000
    203      -0.6428      2.00000
    204      -0.6336      2.00000
    205      -0.6336      2.00000
    206      -0.6257      2.00000
    207      -0.5764      2.00000
    208      -0.5764      2.00000
    209      -0.5213      2.00000
    210      -0.5213      2.00000
    211      -0.5035      2.00000
    212      -0.5035      2.00000
    213      -0.4457      2.00000
    214      -0.4405      2.00000
    215      -0.3931      2.00000
    216      -0.3931      2.00000
    217      -0.3754      2.00000
    218      -0.3107      2.00000
    219      -0.2861      2.00000
    220      -0.2188      2.00000
    221      -0.2158      2.00000
    222      -0.2158      2.00000
    223      -0.1044      2.00000
    224      -0.1044      2.00000
    225      -0.1009      2.00000
    226      -0.0879      2.00000
    227      -0.0879      2.00000
    228      -0.0556      2.00000
    229      -0.0556      2.00000
    230      -0.0138      2.00000
    231      -0.0071      2.00000
    232       0.0629      2.00000
    233       0.0629      2.00000
    234       0.0702      2.00000
    235       0.0702      2.00000
    236       0.0836      2.00000
    237       0.0973      2.00000
    238       0.0973      2.00000
    239       0.1279      2.00000
    240       0.1457      2.00000
    241       0.1654      2.00000
    242       0.2020      2.00000
    243       0.2020      2.00000
    244       0.2044      2.00000
    245       0.2640      2.00000
    246       0.2640      2.00000
    247       0.3300      2.00000
    248       0.3300      2.00000
    249       0.3324      2.00000
    250       0.3324      2.00000
    251       0.3920      2.00000
    252       0.3920      2.00000
    253       0.4002      2.00000
    254       0.4002      2.00000
    255       0.4278      1.99999
    256       0.5014      1.99994
    257       0.5387      1.99959
    258       0.5586      1.99881
    259       0.5587      1.99880
    260       0.5620      1.99862
    261       0.5621      1.99862
    262       0.5755      1.99744
    263       0.5758      1.99740
    264       0.5803      1.99671
    265       0.5933      1.99419
    266       0.5933      1.99419
    267       0.5983      1.99283
    268       0.6017      1.99163
    269       0.6088      1.98890
    270       0.6475      1.95355
    271       0.6475      1.95355
    272       0.7037      1.76900
    273       0.7037      1.76899
    274       0.7063      1.75492
    275       0.7972      0.90078
    276       0.7972      0.90077
    277       0.8055      0.80776
    278       0.8381      0.47933
    279       0.8534      0.35823
    280       0.8534      0.35820
    281       0.8575      0.32801
    282       0.8575      0.32800
    283       0.8942      0.13442
    284       0.9248      0.05370
    285       0.9248      0.05370
    286       0.9312      0.04257
    287       0.9745      0.00848
    288       1.0411      0.00018
    289       1.0532      0.00010
    290       1.0656      0.00010
    291       1.0656      0.00001
    292       1.0943      0.00000
    293       1.1575      0.00000
    294       1.1575      0.00000
    295       1.4845      0.00000
    296       1.4845      0.00000
    297       1.6259      0.00000
    298       2.0959      0.00000
    299       2.0959      0.00000
    300       2.1503      0.00000
    301       2.2292      0.00000
    302       2.4899      0.00000
    303       2.9084      0.00000
    304       2.9084      0.00000
    305       3.6495      0.00000
    306       3.6495      0.00000
    307       3.8391      0.00000
    308       4.0765      0.00000
    309       4.2012      0.00000
    310       4.2013      0.00000
    311       4.5214      0.00000
    312       4.5214      0.00000
    313       4.7705      0.00000
    314       4.7713      0.00000
    315       5.2903      0.00000
    316       5.2912      0.00000
    317       5.4683      0.00000
    318       5.5185      0.00000
    319       5.5537      0.00000
    320       5.5967      0.00000
    321       5.6750      0.00000
    322       5.9643      0.00000
    323       6.0895      0.00000
    324       6.1828      0.00000

 k-point     3 :       0.0000    0.2000    0.0000
  band No.  band energies     occupation 
      1      -8.4207      2.00000
      2      -7.7158      2.00000
      3      -6.8071      2.00000
      4      -6.5847      2.00000
      5      -6.1517      2.00000
      6      -6.1517      2.00000
      7      -6.0586      2.00000
      8      -6.0559      2.00000
      9      -5.8161      2.00000
     10      -5.7727      2.00000
     11      -5.7727      2.00000
     12      -5.7004      2.00000
     13      -5.7004      2.00000
     14      -5.6883      2.00000
     15      -5.6516      2.00000
     16      -5.4551      2.00000
     17      -5.4203      2.00000
     18      -5.3471      2.00000
     19      -5.3471      2.00000
     20      -5.3283      2.00000
     21      -5.2580      2.00000
     22      -5.2580      2.00000
     23      -5.2344      2.00000
     24      -5.2344      2.00000
     25      -5.1167      2.00000
     26      -4.9850      2.00000
     27      -4.9713      2.00000
     28      -4.9713      2.00000
     29      -4.9419      2.00000
     30      -4.8576      2.00000
     31      -4.8576      2.00000
     32      -4.8039      2.00000
     33      -4.8039      2.00000
     34      -4.7096      2.00000
     35      -4.7096      2.00000
     36      -4.6679      2.00000
     37      -4.6108      2.00000
     38      -4.6108      2.00000
     39      -4.5760      2.00000
     40      -4.5488      2.00000
     41      -4.5449      2.00000
     42      -4.5449      2.00000
     43      -4.5111      2.00000
     44      -4.5111      2.00000
     45      -4.4359      2.00000
     46      -4.4326      2.00000
     47      -4.4326      2.00000
     48      -4.4031      2.00000
     49      -4.3754      2.00000
     50      -4.3754      2.00000
     51      -4.3410      2.00000
     52      -4.3410      2.00000
     53      -4.2687      2.00000
     54      -4.2687      2.00000
     55      -4.2453      2.00000
     56      -4.2453      2.00000
     57      -4.2044      2.00000
     58      -4.1449      2.00000
     59      -4.1449      2.00000
     60      -4.0297      2.00000
     61      -4.0297      2.00000
     62      -4.0149      2.00000
     63      -4.0149      2.00000
     64      -4.0070      2.00000
     65      -4.0069      2.00000
     66      -3.8387      2.00000
     67      -3.7681      2.00000
     68      -3.7263      2.00000
     69      -3.7263      2.00000
     70      -3.6982      2.00000
     71      -3.6982      2.00000
     72      -3.6705      2.00000
     73      -3.6705      2.00000
     74      -3.6121      2.00000
     75      -3.6121      2.00000
     76      -3.5468      2.00000
     77      -3.5468      2.00000
     78      -3.4400      2.00000
     79      -3.4400      2.00000
     80      -3.4311      2.00000
     81      -3.3552      2.00000
     82      -3.3552      2.00000
     83      -3.2220      2.00000
     84      -3.1825      2.00000
     85      -3.1825      2.00000
     86      -3.1594      2.00000
     87      -3.1594      2.00000
     88      -3.1414      2.00000
     89      -3.0573      2.00000
     90      -3.0573      2.00000
     91      -3.0393      2.00000
     92      -3.0078      2.00000
     93      -2.9927      2.00000
     94      -2.9927      2.00000
     95      -2.9693      2.00000
     96      -2.8668      2.00000
     97      -2.8668      2.00000
     98      -2.7966      2.00000
     99      -2.7876      2.00000
    100      -2.7876      2.00000
    101      -2.7750      2.00000
    102      -2.7701      2.00000
    103      -2.7701      2.00000
    104      -2.7281      2.00000
    105      -2.6805      2.00000
    106      -2.6511      2.00000
    107      -2.6422      2.00000
    108      -2.6422      2.00000
    109      -2.5767      2.00000
    110      -2.5709      2.00000
    111      -2.5633      2.00000
    112      -2.5633      2.00000
    113      -2.5612      2.00000
    114      -2.5612      2.00000
    115      -2.5368      2.00000
    116      -2.5195      2.00000
    117      -2.5195      2.00000
    118      -2.5165      2.00000
    119      -2.4728      2.00000
    120      -2.4718      2.00000
    121      -2.4659      2.00000
    122      -2.4659      2.00000
    123      -2.3894      2.00000
    124      -2.3894      2.00000
    125      -2.3704      2.00000
    126      -2.3392      2.00000
    127      -2.3392      2.00000
    128      -2.3349      2.00000
    129      -2.3318      2.00000
    130      -2.3150      2.00000
    131      -2.2875      2.00000
    132      -2.2587      2.00000
    133      -2.2587      2.00000
    134      -2.2229      2.00000
    135      -2.2229      2.00000
    136      -2.2125      2.00000
    137      -2.2068      2.00000
    138      -2.1679      2.00000
    139      -2.1560      2.00000
    140      -2.1560      2.00000
    141      -2.1305      2.00000
    142      -2.0397      2.00000
    143      -2.0397      2.00000
    144      -2.0257      2.00000
    145      -1.9983      2.00000
    146      -1.9974      2.00000
    147      -1.9974      2.00000
    148      -1.9705      2.00000
    149      -1.9594      2.00000
    150      -1.9594      2.00000
    151      -1.9506      2.00000
    152      -1.9506      2.00000
    153      -1.9472      2.00000
    154      -1.9271      2.00000
    155      -1.8601      2.00000
    156      -1.8220      2.00000
    157      -1.8219      2.00000
    158      -1.7861      2.00000
    159      -1.7861      2.00000
    160      -1.7603      2.00000
    161      -1.7301      2.00000
    162      -1.7215      2.00000
    163      -1.7215      2.00000
    164      -1.7094      2.00000
    165      -1.6691      2.00000
    166      -1.6691      2.00000
    167      -1.6441      2.00000
    168      -1.6441      2.00000
    169      -1.5580      2.00000
    170      -1.5580      2.00000
    171      -1.4717      2.00000
    172      -1.3874      2.00000
    173      -1.3874      2.00000
    174      -1.3834      2.00000
    175      -1.3834      2.00000
    176      -1.3647      2.00000
    177      -1.3408      2.00000
    178      -1.2290      2.00000
    179      -1.1453      2.00000
    180      -1.1453      2.00000
    181      -1.1306      2.00000
    182      -1.1306      2.00000
    183      -1.1017      2.00000
    184      -1.1017      2.00000
    185      -1.0889      2.00000
    186      -0.9560      2.00000
    187      -0.9355      2.00000
    188      -0.9355      2.00000
    189      -0.9125      2.00000
    190      -0.8983      2.00000
    191      -0.8983      2.00000
    192      -0.8974      2.00000
    193      -0.8940      2.00000
    194      -0.8940      2.00000
    195      -0.8818      2.00000
    196      -0.8043      2.00000
    197      -0.8043      2.00000
    198      -0.7799      2.00000
    199      -0.7494      2.00000
    200      -0.7494      2.00000
    201      -0.6811      2.00000
    202      -0.6526      2.00000
    203      -0.6428      2.00000
    204      -0.6336      2.00000
    205      -0.6336      2.00000
    206      -0.6257      2.00000
    207      -0.5764      2.00000
    208      -0.5764      2.00000
    209      -0.5213      2.00000
    210      -0.5213      2.00000
    211      -0.5035      2.00000
    212      -0.5035      2.00000
    213      -0.4457      2.00000
    214      -0.4405      2.00000
    215      -0.3931      2.00000
    216      -0.3931      2.00000
    217      -0.3754      2.00000
    218      -0.3107      2.00000
    219      -0.2861      2.00000
    220      -0.2188      2.00000
    221      -0.2158      2.00000
    222      -0.2158      2.00000
    223      -0.1044      2.00000
    224      -0.1044      2.00000
    225      -0.1009      2.00000
    226      -0.0879      2.00000
    227      -0.0879      2.00000
    228      -0.0556      2.00000
    229      -0.0556      2.00000
    230      -0.0138      2.00000
    231      -0.0071      2.00000
    232       0.0629      2.00000
    233       0.0629      2.00000
    234       0.0702      2.00000
    235       0.0702      2.00000
    236       0.0836      2.00000
    237       0.0973      2.00000
    238       0.0973      2.00000
    239       0.1279      2.00000
    240       0.1457      2.00000
    241       0.1654      2.00000
    242       0.2020      2.00000
    243       0.2020      2.00000
    244       0.2044      2.00000
    245       0.2640      2.00000
    246       0.2640      2.00000
    247       0.3300      2.00000
    248       0.3300      2.00000
    249       0.3324      2.00000
    250       0.3324      2.00000
    251       0.3920      2.00000
    252       0.3920      2.00000
    253       0.4002      2.00000
    254       0.4002      2.00000
    255       0.4277      2.00000
    256       0.5014      1.99994
    257       0.5385      1.99959
    258       0.5586      1.99882
    259       0.5586      1.99882
    260       0.5621      1.99862
    261       0.5621      1.99862
    262       0.5756      1.99742
    263       0.5758      1.99740
    264       0.5804      1.99670
    265       0.5933      1.99419
    266       0.5933      1.99419
    267       0.5983      1.99283
    268       0.6017      1.99163
    269       0.6088      1.98890
    270       0.6475      1.95355
    271       0.6475      1.95355
    272       0.7037      1.76899
    273       0.7037      1.76899
    274       0.7063      1.75492
    275       0.7972      0.90078
    276       0.7972      0.90077
    277       0.8055      0.80776
    278       0.8381      0.47933
    279       0.8534      0.35824
    280       0.8534      0.35820
    281       0.8575      0.32801
    282       0.8575      0.32798
    283       0.8942      0.13442
    284       0.9248      0.05370
    285       0.9248      0.05370
    286       0.9312      0.04257
    287       0.9745      0.00848
    288       1.0411      0.00018
    289       1.0532      0.00010
    290       1.0656      0.00010
    291       1.0656      0.00001
    292       1.0943      0.00000
    293       1.1575      0.00000
    294       1.1575      0.00000
    295       1.4845      0.00000
    296       1.4845      0.00000
    297       1.6259      0.00000
    298       2.0959      0.00000
    299       2.0959      0.00000
    300       2.1503      0.00000
    301       2.2292      0.00000
    302       2.4899      0.00000
    303       2.9084      0.00000
    304       2.9084      0.00000
    305       3.6495      0.00000
    306       3.6495      0.00000
    307       3.8391      0.00000
    308       4.0765      0.00000
    309       4.2012      0.00000
    310       4.2015      0.00000
    311       4.5214      0.00000
    312       4.5217      0.00000
    313       4.7705      0.00000
    314       4.7746      0.00000
    315       5.2914      0.00000
    316       5.2938      0.00000
    317       5.4689      0.00000
    318       5.4939      0.00000
    319       5.5404      0.00000
    320       5.5944      0.00000
    321       5.8096      0.00000
    322       6.1113      0.00000
    323       6.1741      0.00000
    324       6.5025      0.00000

 k-point     4 :      -0.2000    0.2000    0.0000
  band No.  band energies     occupation 
      1      -8.4207      2.00000
      2      -7.7158      2.00000
      3      -6.8071      2.00000
      4      -6.5847      2.00000
      5      -6.1517      2.00000
      6      -6.1517      2.00000
      7      -6.0586      2.00000
      8      -6.0559      2.00000
      9      -5.8161      2.00000
     10      -5.7727      2.00000
     11      -5.7727      2.00000
     12      -5.7004      2.00000
     13      -5.7004      2.00000
     14      -5.6883      2.00000
     15      -5.6516      2.00000
     16      -5.4550      2.00000
     17      -5.4203      2.00000
     18      -5.3471      2.00000
     19      -5.3471      2.00000
     20      -5.3283      2.00000
     21      -5.2580      2.00000
     22      -5.2580      2.00000
     23      -5.2344      2.00000
     24      -5.2344      2.00000
     25      -5.1167      2.00000
     26      -4.9850      2.00000
     27      -4.9713      2.00000
     28      -4.9713      2.00000
     29      -4.9419      2.00000
     30      -4.8576      2.00000
     31      -4.8576      2.00000
     32      -4.8039      2.00000
     33      -4.8039      2.00000
     34      -4.7096      2.00000
     35      -4.7096      2.00000
     36      -4.6679      2.00000
     37      -4.6108      2.00000
     38      -4.6108      2.00000
     39      -4.5760      2.00000
     40      -4.5488      2.00000
     41      -4.5449      2.00000
     42      -4.5449      2.00000
     43      -4.5111      2.00000
     44      -4.5111      2.00000
     45      -4.4359      2.00000
     46      -4.4326      2.00000
     47      -4.4326      2.00000
     48      -4.4031      2.00000
     49      -4.3754      2.00000
     50      -4.3754      2.00000
     51      -4.3410      2.00000
     52      -4.3410      2.00000
     53      -4.2687      2.00000
     54      -4.2687      2.00000
     55      -4.2453      2.00000
     56      -4.2453      2.00000
     57      -4.2044      2.00000
     58      -4.1449      2.00000
     59      -4.1449      2.00000
     60      -4.0297      2.00000
     61      -4.0297      2.00000
     62      -4.0149      2.00000
     63      -4.0149      2.00000
     64      -4.0070      2.00000
     65      -4.0070      2.00000
     66      -3.8387      2.00000
     67      -3.7681      2.00000
     68      -3.7263      2.00000
     69      -3.7263      2.00000
     70      -3.6982      2.00000
     71      -3.6982      2.00000
     72      -3.6705      2.00000
     73      -3.6705      2.00000
     74      -3.6121      2.00000
     75      -3.6121      2.00000
     76      -3.5468      2.00000
     77      -3.5468      2.00000
     78      -3.4400      2.00000
     79      -3.4400      2.00000
     80      -3.4311      2.00000
     81      -3.3552      2.00000
     82      -3.3552      2.00000
     83      -3.2220      2.00000
     84      -3.1825      2.00000
     85      -3.1825      2.00000
     86      -3.1594      2.00000
     87      -3.1594      2.00000
     88      -3.1414      2.00000
     89      -3.0573      2.00000
     90      -3.0573      2.00000
     91      -3.0393      2.00000
     92      -3.0077      2.00000
     93      -2.9927      2.00000
     94      -2.9927      2.00000
     95      -2.9693      2.00000
     96      -2.8668      2.00000
     97      -2.8668      2.00000
     98      -2.7966      2.00000
     99      -2.7876      2.00000
    100      -2.7876      2.00000
    101      -2.7750      2.00000
    102      -2.7701      2.00000
    103      -2.7701      2.00000
    104      -2.7281      2.00000
    105      -2.6805      2.00000
    106      -2.6511      2.00000
    107      -2.6422      2.00000
    108      -2.6422      2.00000
    109      -2.5767      2.00000
    110      -2.5709      2.00000
    111      -2.5633      2.00000
    112      -2.5633      2.00000
    113      -2.5612      2.00000
    114      -2.5612      2.00000
    115      -2.5368      2.00000
    116      -2.5195      2.00000
    117      -2.5195      2.00000
    118      -2.5165      2.00000
    119      -2.4728      2.00000
    120      -2.4718      2.00000
    121      -2.4659      2.00000
    122      -2.4659      2.00000
    123      -2.3894      2.00000
    124      -2.3894      2.00000
    125      -2.3705      2.00000
    126      -2.3392      2.00000
    127      -2.3392      2.00000
    128      -2.3349      2.00000
    129      -2.3318      2.00000
    130      -2.3150      2.00000
    131      -2.2875      2.00000
    132      -2.2587      2.00000
    133      -2.2587      2.00000
    134      -2.2229      2.00000
    135      -2.2229      2.00000
    136      -2.2125      2.00000
    137      -2.2068      2.00000
    138      -2.1679      2.00000
    139      -2.1560      2.00000
    140      -2.1560      2.00000
    141      -2.1305      2.00000
    142      -2.0397      2.00000
    143      -2.0397      2.00000
    144      -2.0257      2.00000
    145      -1.9983      2.00000
    146      -1.9974      2.00000
    147      -1.9974      2.00000
    148      -1.9705      2.00000
    149      -1.9594      2.00000
    150      -1.9594      2.00000
    151      -1.9506      2.00000
    152      -1.9506      2.00000
    153      -1.9472      2.00000
    154      -1.9272      2.00000
    155      -1.8601      2.00000
    156      -1.8219      2.00000
    157      -1.8219      2.00000
    158      -1.7861      2.00000
    159      -1.7861      2.00000
    160      -1.7603      2.00000
    161      -1.7301      2.00000
    162      -1.7215      2.00000
    163      -1.7215      2.00000
    164      -1.7094      2.00000
    165      -1.6691      2.00000
    166      -1.6691      2.00000
    167      -1.6441      2.00000
    168      -1.6441      2.00000
    169      -1.5580      2.00000
    170      -1.5580      2.00000
    171      -1.4717      2.00000
    172      -1.3874      2.00000
    173      -1.3874      2.00000
    174      -1.3834      2.00000
    175      -1.3834      2.00000
    176      -1.3647      2.00000
    177      -1.3408      2.00000
    178      -1.2290      2.00000
    179      -1.1453      2.00000
    180      -1.1453      2.00000
    181      -1.1306      2.00000
    182      -1.1306      2.00000
    183      -1.1017      2.00000
    184      -1.1017      2.00000
    185      -1.0889      2.00000
    186      -0.9560      2.00000
    187      -0.9355      2.00000
    188      -0.9355      2.00000
    189      -0.9125      2.00000
    190      -0.8983      2.00000
    191      -0.8983      2.00000
    192      -0.8974      2.00000
    193      -0.8940      2.00000
    194      -0.8940      2.00000
    195      -0.8819      2.00000
    196      -0.8043      2.00000
    197      -0.8043      2.00000
    198      -0.7799      2.00000
    199      -0.7494      2.00000
    200      -0.7494      2.00000
    201      -0.6811      2.00000
    202      -0.6526      2.00000
    203      -0.6428      2.00000
    204      -0.6336      2.00000
    205      -0.6336      2.00000
    206      -0.6257      2.00000
    207      -0.5764      2.00000
    208      -0.5764      2.00000
    209      -0.5213      2.00000
    210      -0.5213      2.00000
    211      -0.5035      2.00000
    212      -0.5035      2.00000
    213      -0.4457      2.00000
    214      -0.4405      2.00000
    215      -0.3931      2.00000
    216      -0.3931      2.00000
    217      -0.3754      2.00000
    218      -0.3107      2.00000
    219      -0.2861      2.00000
    220      -0.2188      2.00000
    221      -0.2158      2.00000
    222      -0.2158      2.00000
    223      -0.1044      2.00000
    224      -0.1044      2.00000
    225      -0.1009      2.00000
    226      -0.0879      2.00000
    227      -0.0879      2.00000
    228      -0.0556      2.00000
    229      -0.0556      2.00000
    230      -0.0138      2.00000
    231      -0.0071      2.00000
    232       0.0629      2.00000
    233       0.0629      2.00000
    234       0.0702      2.00000
    235       0.0702      2.00000
    236       0.0836      2.00000
    237       0.0973      2.00000
    238       0.0973      2.00000
    239       0.1279      2.00000
    240       0.1457      2.00000
    241       0.1654      2.00000
    242       0.2020      2.00000
    243       0.2020      2.00000
    244       0.2044      2.00000
    245       0.2640      2.00000
    246       0.2640      2.00000
    247       0.3299      2.00000
    248       0.3300      2.00000
    249       0.3324      2.00000
    250       0.3324      2.00000
    251       0.3920      2.00000
    252       0.3920      2.00000
    253       0.4002      2.00000
    254       0.4002      2.00000
    255       0.4276      2.00000
    256       0.5014      1.99994
    257       0.5387      1.99959
    258       0.5585      1.99884
    259       0.5586      1.99882
    260       0.5621      1.99861
    261       0.5621      1.99861
    262       0.5756      1.99743
    263       0.5759      1.99736
    264       0.5804      1.99668
    265       0.5933      1.99419
    266       0.5933      1.99419
    267       0.5985      1.99276
    268       0.6015      1.99170
    269       0.6088      1.98889
    270       0.6475      1.95355
    271       0.6475      1.95355
    272       0.7037      1.76899
    273       0.7037      1.76899
    274       0.7063      1.75492
    275       0.7972      0.90077
    276       0.7972      0.90076
    277       0.8055      0.80778
    278       0.8381      0.47933
    279       0.8534      0.35823
    280       0.8534      0.35819
    281       0.8575      0.32801
    282       0.8575      0.32798
    283       0.8942      0.13442
    284       0.9248      0.05370
    285       0.9248      0.05370
    286       0.9312      0.04258
    287       0.9745      0.00848
    288       1.0411      0.00018
    289       1.0532      0.00010
    290       1.0656      0.00010
    291       1.0656      0.00001
    292       1.0943      0.00000
    293       1.1575      0.00000
    294       1.1575      0.00000
    295       1.4845      0.00000
    296       1.4846      0.00000
    297       1.6259      0.00000
    298       2.0959      0.00000
    299       2.0959      0.00000
    300       2.1503      0.00000
    301       2.2292      0.00000
    302       2.4899      0.00000
    303       2.9084      0.00000
    304       2.9084      0.00000
    305       3.6495      0.00000
    306       3.6495      0.00000
    307       3.8391      0.00000
    308       4.0765      0.00000
    309       4.2011      0.00000
    310       4.2014      0.00000
    311       4.5214      0.00000
    312       4.5215      0.00000
    313       4.7707      0.00000
    314       4.7752      0.00000
    315       5.2905      0.00000
    316       5.2949      0.00000
    317       5.4638      0.00000
    318       5.4877      0.00000
    319       5.5377      0.00000
    320       5.6066      0.00000
    321       5.7905      0.00000
    322       6.1046      0.00000
    323       6.1449      0.00000
    324       6.3088      0.00000

 k-point     5 :       0.4000    0.0000    0.0000
  band No.  band energies     occupation 
      1      -7.9880      2.00000
      2      -7.3310      2.00000
      3      -7.2989      2.00000
      4      -6.6900      2.00000
      5      -6.4004      2.00000
      6      -6.2014      2.00000
      7      -6.2014      2.00000
      8      -5.8506      2.00000
      9      -5.7880      2.00000
     10      -5.7244      2.00000
     11      -5.7244      2.00000
     12      -5.6564      2.00000
     13      -5.5522      2.00000
     14      -5.4228      2.00000
     15      -5.4228      2.00000
     16      -5.3002      2.00000
     17      -5.2755      2.00000
     18      -5.2528      2.00000
     19      -5.1870      2.00000
     20      -5.1608      2.00000
     21      -5.1398      2.00000
     22      -5.1398      2.00000
     23      -5.1294      2.00000
     24      -5.1078      2.00000
     25      -5.1078      2.00000
     26      -5.0077      2.00000
     27      -5.0077      2.00000
     28      -4.9491      2.00000
     29      -4.9491      2.00000
     30      -4.9266      2.00000
     31      -4.9266      2.00000
     32      -4.8080      2.00000
     33      -4.7843      2.00000
     34      -4.7843      2.00000
     35      -4.7253      2.00000
     36      -4.7172      2.00000
     37      -4.7004      2.00000
     38      -4.6844      2.00000
     39      -4.6844      2.00000
     40      -4.5509      2.00000
     41      -4.5463      2.00000
     42      -4.5463      2.00000
     43      -4.5361      2.00000
     44      -4.5360      2.00000
     45      -4.5121      2.00000
     46      -4.5121      2.00000
     47      -4.3840      2.00000
     48      -4.3840      2.00000
     49      -4.3641      2.00000
     50      -4.3641      2.00000
     51      -4.2987      2.00000
     52      -4.2987      2.00000
     53      -4.2725      2.00000
     54      -4.2725      2.00000
     55      -4.1396      2.00000
     56      -4.1396      2.00000
     57      -4.0970      2.00000
     58      -4.0970      2.00000
     59      -4.0736      2.00000
     60      -4.0735      2.00000
     61      -4.0356      2.00000
     62      -4.0356      2.00000
     63      -3.9795      2.00000
     64      -3.9795      2.00000
     65      -3.8442      2.00000
     66      -3.8170      2.00000
     67      -3.7719      2.00000
     68      -3.7719      2.00000
     69      -3.7504      2.00000
     70      -3.7504      2.00000
     71      -3.7016      2.00000
     72      -3.7016      2.00000
     73      -3.6267      2.00000
     74      -3.6267      2.00000
     75      -3.5442      2.00000
     76      -3.5442      2.00000
     77      -3.4632      2.00000
     78      -3.4632      2.00000
     79      -3.4454      2.00000
     80      -3.4454      2.00000
     81      -3.4179      2.00000
     82      -3.3943      2.00000
     83      -3.3943      2.00000
     84      -3.3694      2.00000
     85      -3.3352      2.00000
     86      -3.3352      2.00000
     87      -3.3295      2.00000
     88      -3.2825      2.00000
     89      -3.2825      2.00000
     90      -3.2169      2.00000
     91      -3.1822      2.00000
     92      -3.1588      2.00000
     93      -3.1051      2.00000
     94      -3.1051      2.00000
     95      -3.0558      2.00000
     96      -3.0346      2.00000
     97      -3.0093      2.00000
     98      -3.0093      2.00000
     99      -2.9607      2.00000
    100      -2.9607      2.00000
    101      -2.9319      2.00000
    102      -2.8630      2.00000
    103      -2.8297      2.00000
    104      -2.8297      2.00000
    105      -2.8245      2.00000
    106      -2.8245      2.00000
    107      -2.7716      2.00000
    108      -2.7596      2.00000
    109      -2.7596      2.00000
    110      -2.7242      2.00000
    111      -2.6648      2.00000
    112      -2.6136      2.00000
    113      -2.6136      2.00000
    114      -2.5953      2.00000
    115      -2.5953      2.00000
    116      -2.5918      2.00000
    117      -2.5456      2.00000
    118      -2.5288      2.00000
    119      -2.5288      2.00000
    120      -2.5072      2.00000
    121      -2.4582      2.00000
    122      -2.4582      2.00000
    123      -2.4505      2.00000
    124      -2.4505      2.00000
    125      -2.4286      2.00000
    126      -2.3905      2.00000
    127      -2.3905      2.00000
    128      -2.3886      2.00000
    129      -2.3643      2.00000
    130      -2.3643      2.00000
    131      -2.3379      2.00000
    132      -2.2933      2.00000
    133      -2.2734      2.00000
    134      -2.2626      2.00000
    135      -2.2366      2.00000
    136      -2.2366      2.00000
    137      -2.2230      2.00000
    138      -2.2230      2.00000
    139      -2.1826      2.00000
    140      -2.1773      2.00000
    141      -2.1699      2.00000
    142      -2.1082      2.00000
    143      -2.1082      2.00000
    144      -2.0970      2.00000
    145      -2.0898      2.00000
    146      -2.0898      2.00000
    147      -2.0751      2.00000
    148      -2.0573      2.00000
    149      -2.0193      2.00000
    150      -2.0032      2.00000
    151      -1.9349      2.00000
    152      -1.9348      2.00000
    153      -1.8714      2.00000
    154      -1.8714      2.00000
    155      -1.8612      2.00000
    156      -1.8386      2.00000
    157      -1.7996      2.00000
    158      -1.7765      2.00000
    159      -1.7765      2.00000
    160      -1.7732      2.00000
    161      -1.7732      2.00000
    162      -1.7564      2.00000
    163      -1.7169      2.00000
    164      -1.6856      2.00000
    165      -1.6856      2.00000
    166      -1.6814      2.00000
    167      -1.6369      2.00000
    168      -1.5776      2.00000
    169      -1.5602      2.00000
    170      -1.5602      2.00000
    171      -1.4917      2.00000
    172      -1.4677      2.00000
    173      -1.4677      2.00000
    174      -1.3964      2.00000
    175      -1.3696      2.00000
    176      -1.3696      2.00000
    177      -1.2850      2.00000
    178      -1.2850      2.00000
    179      -1.2835      2.00000
    180      -1.2835      2.00000
    181      -1.2534      2.00000
    182      -1.2054      2.00000
    183      -1.1959      2.00000
    184      -1.1959      2.00000
    185      -1.1721      2.00000
    186      -1.1721      2.00000
    187      -1.1578      2.00000
    188      -1.1531      2.00000
    189      -1.1162      2.00000
    190      -1.1162      2.00000
    191      -1.0628      2.00000
    192      -1.0521      2.00000
    193      -1.0506      2.00000
    194      -1.0506      2.00000
    195      -0.9778      2.00000
    196      -0.9778      2.00000
    197      -0.9521      2.00000
    198      -0.9521      2.00000
    199      -0.9434      2.00000
    200      -0.8419      2.00000
    201      -0.8019      2.00000
    202      -0.7381      2.00000
    203      -0.7381      2.00000
    204      -0.6594      2.00000
    205      -0.6128      2.00000
    206      -0.5967      2.00000
    207      -0.5906      2.00000
    208      -0.5906      2.00000
    209      -0.5733      2.00000
    210      -0.5733      2.00000
    211      -0.4646      2.00000
    212      -0.4646      2.00000
    213      -0.4129      2.00000
    214      -0.4129      2.00000
    215      -0.4095      2.00000
    216      -0.4073      2.00000
    217      -0.3677      2.00000
    218      -0.3677      2.00000
    219      -0.3512      2.00000
    220      -0.3481      2.00000
    221      -0.2989      2.00000
    222      -0.2522      2.00000
    223      -0.2522      2.00000
    224      -0.2501      2.00000
    225      -0.2370      2.00000
    226      -0.2370      2.00000
    227      -0.1499      2.00000
    228      -0.1499      2.00000
    229      -0.0971      2.00000
    230      -0.0971      2.00000
    231      -0.0398      2.00000
    232      -0.0398      2.00000
    233       0.0853      2.00000
    234       0.0853      2.00000
    235       0.0883      2.00000
    236       0.0901      2.00000
    237       0.1058      2.00000
    238       0.1058      2.00000
    239       0.1375      2.00000
    240       0.1375      2.00000
    241       0.2263      2.00000
    242       0.2263      2.00000
    243       0.2521      2.00000
    244       0.3082      2.00000
    245       0.3320      2.00000
    246       0.3320      2.00000
    247       0.3462      2.00000
    248       0.3685      2.00000
    249       0.3685      2.00000
    250       0.3948      2.00000
    251       0.3948      2.00000
    252       0.4864      1.99996
    253       0.4864      1.99996
    254       0.5898      1.99496
    255       0.5970      1.99314
    256       0.6464      1.95505
    257       0.6464      1.95505
    258       0.6547      1.94117
    259       0.6547      1.94117
    260       0.6590      1.93264
    261       0.6617      1.92644
    262       0.6617      1.92644
    263       0.7038      1.76839
    264       0.7247      1.63305
    265       0.7247      1.63304
    266       0.7382      1.52232
    267       0.7382      1.52231
    268       0.7604      1.30735
    269       0.7729      1.17557
    270       0.8300      0.55529
    271       0.8606      0.30826
    272       0.8617      0.29962
    273       0.9111      0.08251
    274       0.9111      0.08251
    275       0.9203      0.06181
    276       0.9203      0.06181
    277       0.9561      0.01775
    278       1.0740      0.00000
    279       1.0996      0.00000
    280       1.0996      0.00000
    281       1.1067      0.00000
    282       1.1067      0.00000
    283       1.2155      0.00000
    284       1.2539      0.00000
    285       1.2741      0.00000
    286       1.2754      0.00000
    287       1.5252      0.00000
    288       1.5252      0.00000
    289       1.8681      0.00000
    290       1.9281      0.00000
    291       1.9281      0.00000
    292       2.1680      0.00000
    293       2.1680      0.00000
    294       2.3318      0.00000
    295       2.4673      0.00000
    296       2.4673      0.00000
    297       2.5050      0.00000
    298       2.6782      0.00000
    299       2.8414      0.00000
    300       2.8414      0.00000
    301       2.9191      0.00000
    302       3.1012      0.00000
    303       3.1012      0.00000
    304       3.2917      0.00000
    305       3.2917      0.00000
    306       3.3422      0.00000
    307       3.4026      0.00000
    308       3.4370      0.00000
    309       3.4370      0.00000
    310       3.9423      0.00000
    311       3.9866      0.00000
    312       3.9866      0.00000
    313       4.4350      0.00000
    314       4.4351      0.00000
    315       4.6303      0.00000
    316       4.6500      0.00000
    317       4.6501      0.00000
    318       4.6542      0.00000
    319       4.8668      0.00000
    320       4.8669      0.00000
    321       6.2130      0.00000
    322       6.2497      0.00000
    323       6.3759      0.00000
    324       6.4950      0.00000

 k-point     6 :       0.0000    0.4000    0.0000
  band No.  band energies     occupation 
      1      -7.9880      2.00000
      2      -7.3310      2.00000
      3      -7.2989      2.00000
      4      -6.6900      2.00000
      5      -6.4004      2.00000
      6      -6.2014      2.00000
      7      -6.2014      2.00000
      8      -5.8506      2.00000
      9      -5.7880      2.00000
     10      -5.7244      2.00000
     11      -5.7244      2.00000
     12      -5.6564      2.00000
     13      -5.5522      2.00000
     14      -5.4228      2.00000
     15      -5.4228      2.00000
     16      -5.3002      2.00000
     17      -5.2755      2.00000
     18      -5.2528      2.00000
     19      -5.1870      2.00000
     20      -5.1608      2.00000
     21      -5.1398      2.00000
     22      -5.1398      2.00000
     23      -5.1294      2.00000
     24      -5.1078      2.00000
     25      -5.1078      2.00000
     26      -5.0077      2.00000
     27      -5.0077      2.00000
     28      -4.9491      2.00000
     29      -4.9491      2.00000
     30      -4.9266      2.00000
     31      -4.9266      2.00000
     32      -4.8080      2.00000
     33      -4.7843      2.00000
     34      -4.7843      2.00000
     35      -4.7253      2.00000
     36      -4.7172      2.00000
     37      -4.7004      2.00000
     38      -4.6844      2.00000
     39      -4.6844      2.00000
     40      -4.5509      2.00000
     41      -4.5463      2.00000
     42      -4.5463      2.00000
     43      -4.5361      2.00000
     44      -4.5360      2.00000
     45      -4.5121      2.00000
     46      -4.5121      2.00000
     47      -4.3840      2.00000
     48      -4.3840      2.00000
     49      -4.3641      2.00000
     50      -4.3641      2.00000
     51      -4.2987      2.00000
     52      -4.2987      2.00000
     53      -4.2725      2.00000
     54      -4.2725      2.00000
     55      -4.1396      2.00000
     56      -4.1396      2.00000
     57      -4.0970      2.00000
     58      -4.0970      2.00000
     59      -4.0736      2.00000
     60      -4.0735      2.00000
     61      -4.0356      2.00000
     62      -4.0356      2.00000
     63      -3.9795      2.00000
     64      -3.9795      2.00000
     65      -3.8442      2.00000
     66      -3.8170      2.00000
     67      -3.7719      2.00000
     68      -3.7719      2.00000
     69      -3.7504      2.00000
     70      -3.7504      2.00000
     71      -3.7016      2.00000
     72      -3.7016      2.00000
     73      -3.6267      2.00000
     74      -3.6267      2.00000
     75      -3.5442      2.00000
     76      -3.5442      2.00000
     77      -3.4632      2.00000
     78      -3.4632      2.00000
     79      -3.4454      2.00000
     80      -3.4454      2.00000
     81      -3.4179      2.00000
     82      -3.3943      2.00000
     83      -3.3943      2.00000
     84      -3.3694      2.00000
     85      -3.3352      2.00000
     86      -3.3352      2.00000
     87      -3.3295      2.00000
     88      -3.2825      2.00000
     89      -3.2825      2.00000
     90      -3.2169      2.00000
     91      -3.1822      2.00000
     92      -3.1588      2.00000
     93      -3.1051      2.00000
     94      -3.1051      2.00000
     95      -3.0558      2.00000
     96      -3.0346      2.00000
     97      -3.0093      2.00000
     98      -3.0093      2.00000
     99      -2.9607      2.00000
    100      -2.9607      2.00000
    101      -2.9319      2.00000
    102      -2.8630      2.00000
    103      -2.8297      2.00000
    104      -2.8297      2.00000
    105      -2.8245      2.00000
    106      -2.8245      2.00000
    107      -2.7716      2.00000
    108      -2.7596      2.00000
    109      -2.7596      2.00000
    110      -2.7242      2.00000
    111      -2.6648      2.00000
    112      -2.6136      2.00000
    113      -2.6136      2.00000
    114      -2.5953      2.00000
    115      -2.5953      2.00000
    116      -2.5918      2.00000
    117      -2.5456      2.00000
    118      -2.5288      2.00000
    119      -2.5288      2.00000
    120      -2.5072      2.00000
    121      -2.4582      2.00000
    122      -2.4582      2.00000
    123      -2.4505      2.00000
    124      -2.4505      2.00000
    125      -2.4286      2.00000
    126      -2.3905      2.00000
    127      -2.3905      2.00000
    128      -2.3886      2.00000
    129      -2.3643      2.00000
    130      -2.3643      2.00000
    131      -2.3379      2.00000
    132      -2.2933      2.00000
    133      -2.2734      2.00000
    134      -2.2626      2.00000
    135      -2.2366      2.00000
    136      -2.2366      2.00000
    137      -2.2230      2.00000
    138      -2.2230      2.00000
    139      -2.1826      2.00000
    140      -2.1773      2.00000
    141      -2.1699      2.00000
    142      -2.1082      2.00000
    143      -2.1082      2.00000
    144      -2.0970      2.00000
    145      -2.0898      2.00000
    146      -2.0898      2.00000
    147      -2.0751      2.00000
    148      -2.0573      2.00000
    149      -2.0193      2.00000
    150      -2.0032      2.00000
    151      -1.9349      2.00000
    152      -1.9348      2.00000
    153      -1.8714      2.00000
    154      -1.8714      2.00000
    155      -1.8612      2.00000
    156      -1.8386      2.00000
    157      -1.7996      2.00000
    158      -1.7765      2.00000
    159      -1.7765      2.00000
    160      -1.7732      2.00000
    161      -1.7732      2.00000
    162      -1.7564      2.00000
    163      -1.7169      2.00000
    164      -1.6856      2.00000
    165      -1.6856      2.00000
    166      -1.6814      2.00000
    167      -1.6369      2.00000
    168      -1.5776      2.00000
    169      -1.5602      2.00000
    170      -1.5602      2.00000
    171      -1.4917      2.00000
    172      -1.4677      2.00000
    173      -1.4677      2.00000
    174      -1.3964      2.00000
    175      -1.3696      2.00000
    176      -1.3696      2.00000
    177      -1.2850      2.00000
    178      -1.2850      2.00000
    179      -1.2835      2.00000
    180      -1.2835      2.00000
    181      -1.2534      2.00000
    182      -1.2054      2.00000
    183      -1.1959      2.00000
    184      -1.1959      2.00000
    185      -1.1721      2.00000
    186      -1.1721      2.00000
    187      -1.1578      2.00000
    188      -1.1531      2.00000
    189      -1.1162      2.00000
    190      -1.1162      2.00000
    191      -1.0628      2.00000
    192      -1.0521      2.00000
    193      -1.0506      2.00000
    194      -1.0506      2.00000
    195      -0.9778      2.00000
    196      -0.9778      2.00000
    197      -0.9521      2.00000
    198      -0.9521      2.00000
    199      -0.9434      2.00000
    200      -0.8419      2.00000
    201      -0.8019      2.00000
    202      -0.7381      2.00000
    203      -0.7381      2.00000
    204      -0.6594      2.00000
    205      -0.6128      2.00000
    206      -0.5967      2.00000
    207      -0.5906      2.00000
    208      -0.5906      2.00000
    209      -0.5733      2.00000
    210      -0.5733      2.00000
    211      -0.4646      2.00000
    212      -0.4646      2.00000
    213      -0.4129      2.00000
    214      -0.4129      2.00000
    215      -0.4095      2.00000
    216      -0.4073      2.00000
    217      -0.3677      2.00000
    218      -0.3677      2.00000
    219      -0.3512      2.00000
    220      -0.3481      2.00000
    221      -0.2989      2.00000
    222      -0.2522      2.00000
    223      -0.2522      2.00000
    224      -0.2501      2.00000
    225      -0.2370      2.00000
    226      -0.2370      2.00000
    227      -0.1499      2.00000
    228      -0.1499      2.00000
    229      -0.0971      2.00000
    230      -0.0971      2.00000
    231      -0.0398      2.00000
    232      -0.0398      2.00000
    233       0.0853      2.00000
    234       0.0853      2.00000
    235       0.0883      2.00000
    236       0.0901      2.00000
    237       0.1058      2.00000
    238       0.1058      2.00000
    239       0.1375      2.00000
    240       0.1375      2.00000
    241       0.2263      2.00000
    242       0.2263      2.00000
    243       0.2521      2.00000
    244       0.3082      2.00000
    245       0.3320      2.00000
    246       0.3320      2.00000
    247       0.3462      2.00000
    248       0.3685      2.00000
    249       0.3685      2.00000
    250       0.3948      2.00000
    251       0.3948      2.00000
    252       0.4864      1.99996
    253       0.4864      1.99996
    254       0.5898      1.99496
    255       0.5970      1.99314
    256       0.6464      1.95505
    257       0.6464      1.95505
    258       0.6547      1.94117
    259       0.6547      1.94117
    260       0.6590      1.93264
    261       0.6617      1.92644
    262       0.6617      1.92644
    263       0.7038      1.76839
    264       0.7247      1.63305
    265       0.7247      1.63304
    266       0.7382      1.52232
    267       0.7382      1.52231
    268       0.7604      1.30735
    269       0.7729      1.17557
    270       0.8300      0.55529
    271       0.8606      0.30826
    272       0.8617      0.29963
    273       0.9111      0.08251
    274       0.9111      0.08251
    275       0.9203      0.06181
    276       0.9203      0.06181
    277       0.9561      0.01775
    278       1.0740      0.00000
    279       1.0996      0.00000
    280       1.0996      0.00000
    281       1.1067      0.00000
    282       1.1067      0.00000
    283       1.2155      0.00000
    284       1.2539      0.00000
    285       1.2741      0.00000
    286       1.2754      0.00000
    287       1.5252      0.00000
    288       1.5252      0.00000
    289       1.8681      0.00000
    290       1.9281      0.00000
    291       1.9281      0.00000
    292       2.1680      0.00000
    293       2.1680      0.00000
    294       2.3318      0.00000
    295       2.4673      0.00000
    296       2.4673      0.00000
    297       2.5050      0.00000
    298       2.6782      0.00000
    299       2.8414      0.00000
    300       2.8414      0.00000
    301       2.9191      0.00000
    302       3.1012      0.00000
    303       3.1012      0.00000
    304       3.2917      0.00000
    305       3.2917      0.00000
    306       3.3422      0.00000
    307       3.4026      0.00000
    308       3.4370      0.00000
    309       3.4370      0.00000
    310       3.9423      0.00000
    311       3.9866      0.00000
    312       3.9866      0.00000
    313       4.4350      0.00000
    314       4.4352      0.00000
    315       4.6303      0.00000
    316       4.6500      0.00000
    317       4.6503      0.00000
    318       4.6542      0.00000
    319       4.8671      0.00000
    320       4.8686      0.00000
    321       6.1736      0.00000
    322       6.3484      0.00000
    323       6.3675      0.00000
    324       6.4654      0.00000

 k-point     7 :      -0.4000    0.4000    0.0000
  band No.  band energies     occupation 
      1      -7.9880      2.00000
      2      -7.3310      2.00000
      3      -7.2989      2.00000
      4      -6.6900      2.00000
      5      -6.4004      2.00000
      6      -6.2014      2.00000
      7      -6.2014      2.00000
      8      -5.8506      2.00000
      9      -5.7880      2.00000
     10      -5.7244      2.00000
     11      -5.7244      2.00000
     12      -5.6564      2.00000
     13      -5.5522      2.00000
     14      -5.4228      2.00000
     15      -5.4228      2.00000
     16      -5.3002      2.00000
     17      -5.2755      2.00000
     18      -5.2528      2.00000
     19      -5.1870      2.00000
     20      -5.1608      2.00000
     21      -5.1398      2.00000
     22      -5.1398      2.00000
     23      -5.1294      2.00000
     24      -5.1078      2.00000
     25      -5.1078      2.00000
     26      -5.0077      2.00000
     27      -5.0077      2.00000
     28      -4.9491      2.00000
     29      -4.9491      2.00000
     30      -4.9266      2.00000
     31      -4.9266      2.00000
     32      -4.8080      2.00000
     33      -4.7843      2.00000
     34      -4.7843      2.00000
     35      -4.7253      2.00000
     36      -4.7172      2.00000
     37      -4.7004      2.00000
     38      -4.6844      2.00000
     39      -4.6844      2.00000
     40      -4.5509      2.00000
     41      -4.5463      2.00000
     42      -4.5463      2.00000
     43      -4.5361      2.00000
     44      -4.5361      2.00000
     45      -4.5121      2.00000
     46      -4.5121      2.00000
     47      -4.3840      2.00000
     48      -4.3840      2.00000
     49      -4.3641      2.00000
     50      -4.3641      2.00000
     51      -4.2987      2.00000
     52      -4.2987      2.00000
     53      -4.2725      2.00000
     54      -4.2725      2.00000
     55      -4.1396      2.00000
     56      -4.1396      2.00000
     57      -4.0970      2.00000
     58      -4.0970      2.00000
     59      -4.0736      2.00000
     60      -4.0736      2.00000
     61      -4.0356      2.00000
     62      -4.0356      2.00000
     63      -3.9795      2.00000
     64      -3.9795      2.00000
     65      -3.8442      2.00000
     66      -3.8170      2.00000
     67      -3.7719      2.00000
     68      -3.7719      2.00000
     69      -3.7504      2.00000
     70      -3.7504      2.00000
     71      -3.7016      2.00000
     72      -3.7016      2.00000
     73      -3.6267      2.00000
     74      -3.6267      2.00000
     75      -3.5442      2.00000
     76      -3.5442      2.00000
     77      -3.4632      2.00000
     78      -3.4632      2.00000
     79      -3.4454      2.00000
     80      -3.4454      2.00000
     81      -3.4178      2.00000
     82      -3.3943      2.00000
     83      -3.3943      2.00000
     84      -3.3694      2.00000
     85      -3.3352      2.00000
     86      -3.3352      2.00000
     87      -3.3295      2.00000
     88      -3.2825      2.00000
     89      -3.2825      2.00000
     90      -3.2169      2.00000
     91      -3.1822      2.00000
     92      -3.1588      2.00000
     93      -3.1051      2.00000
     94      -3.1051      2.00000
     95      -3.0558      2.00000
     96      -3.0346      2.00000
     97      -3.0093      2.00000
     98      -3.0093      2.00000
     99      -2.9607      2.00000
    100      -2.9607      2.00000
    101      -2.9319      2.00000
    102      -2.8630      2.00000
    103      -2.8297      2.00000
    104      -2.8297      2.00000
    105      -2.8245      2.00000
    106      -2.8245      2.00000
    107      -2.7716      2.00000
    108      -2.7596      2.00000
    109      -2.7596      2.00000
    110      -2.7242      2.00000
    111      -2.6648      2.00000
    112      -2.6136      2.00000
    113      -2.6136      2.00000
    114      -2.5953      2.00000
    115      -2.5953      2.00000
    116      -2.5918      2.00000
    117      -2.5456      2.00000
    118      -2.5288      2.00000
    119      -2.5288      2.00000
    120      -2.5072      2.00000
    121      -2.4582      2.00000
    122      -2.4582      2.00000
    123      -2.4505      2.00000
    124      -2.4505      2.00000
    125      -2.4286      2.00000
    126      -2.3905      2.00000
    127      -2.3905      2.00000
    128      -2.3886      2.00000
    129      -2.3643      2.00000
    130      -2.3643      2.00000
    131      -2.3379      2.00000
    132      -2.2933      2.00000
    133      -2.2734      2.00000
    134      -2.2626      2.00000
    135      -2.2366      2.00000
    136      -2.2366      2.00000
    137      -2.2230      2.00000
    138      -2.2230      2.00000
    139      -2.1826      2.00000
    140      -2.1773      2.00000
    141      -2.1699      2.00000
    142      -2.1082      2.00000
    143      -2.1082      2.00000
    144      -2.0970      2.00000
    145      -2.0898      2.00000
    146      -2.0898      2.00000
    147      -2.0751      2.00000
    148      -2.0573      2.00000
    149      -2.0193      2.00000
    150      -2.0032      2.00000
    151      -1.9349      2.00000
    152      -1.9349      2.00000
    153      -1.8714      2.00000
    154      -1.8714      2.00000
    155      -1.8612      2.00000
    156      -1.8386      2.00000
    157      -1.7996      2.00000
    158      -1.7765      2.00000
    159      -1.7765      2.00000
    160      -1.7732      2.00000
    161      -1.7732      2.00000
    162      -1.7564      2.00000
    163      -1.7169      2.00000
    164      -1.6856      2.00000
    165      -1.6856      2.00000
    166      -1.6814      2.00000
    167      -1.6369      2.00000
    168      -1.5776      2.00000
    169      -1.5602      2.00000
    170      -1.5602      2.00000
    171      -1.4917      2.00000
    172      -1.4677      2.00000
    173      -1.4677      2.00000
    174      -1.3964      2.00000
    175      -1.3696      2.00000
    176      -1.3696      2.00000
    177      -1.2850      2.00000
    178      -1.2850      2.00000
    179      -1.2835      2.00000
    180      -1.2835      2.00000
    181      -1.2534      2.00000
    182      -1.2054      2.00000
    183      -1.1959      2.00000
    184      -1.1959      2.00000
    185      -1.1721      2.00000
    186      -1.1721      2.00000
    187      -1.1578      2.00000
    188      -1.1531      2.00000
    189      -1.1162      2.00000
    190      -1.1162      2.00000
    191      -1.0628      2.00000
    192      -1.0521      2.00000
    193      -1.0506      2.00000
    194      -1.0506      2.00000
    195      -0.9778      2.00000
    196      -0.9778      2.00000
    197      -0.9521      2.00000
    198      -0.9521      2.00000
    199      -0.9435      2.00000
    200      -0.8419      2.00000
    201      -0.8019      2.00000
    202      -0.7381      2.00000
    203      -0.7381      2.00000
    204      -0.6594      2.00000
    205      -0.6128      2.00000
    206      -0.5967      2.00000
    207      -0.5906      2.00000
    208      -0.5906      2.00000
    209      -0.5733      2.00000
    210      -0.5733      2.00000
    211      -0.4646      2.00000
    212      -0.4646      2.00000
    213      -0.4129      2.00000
    214      -0.4129      2.00000
    215      -0.4095      2.00000
    216      -0.4073      2.00000
    217      -0.3677      2.00000
    218      -0.3677      2.00000
    219      -0.3512      2.00000
    220      -0.3481      2.00000
    221      -0.2989      2.00000
    222      -0.2522      2.00000
    223      -0.2522      2.00000
    224      -0.2501      2.00000
    225      -0.2370      2.00000
    226      -0.2370      2.00000
    227      -0.1499      2.00000
    228      -0.1499      2.00000
    229      -0.0971      2.00000
    230      -0.0971      2.00000
    231      -0.0398      2.00000
    232      -0.0398      2.00000
    233       0.0853      2.00000
    234       0.0853      2.00000
    235       0.0883      2.00000
    236       0.0901      2.00000
    237       0.1058      2.00000
    238       0.1058      2.00000
    239       0.1375      2.00000
    240       0.1375      2.00000
    241       0.2263      2.00000
    242       0.2263      2.00000
    243       0.2521      2.00000
    244       0.3082      2.00000
    245       0.3320      2.00000
    246       0.3320      2.00000
    247       0.3462      2.00000
    248       0.3685      2.00000
    249       0.3685      2.00000
    250       0.3948      2.00000
    251       0.3948      2.00000
    252       0.4864      1.99996
    253       0.4864      1.99996
    254       0.5898      1.99496
    255       0.5970      1.99314
    256       0.6464      1.95505
    257       0.6464      1.95505
    258       0.6547      1.94117
    259       0.6547      1.94117
    260       0.6590      1.93264
    261       0.6617      1.92644
    262       0.6617      1.92644
    263       0.7038      1.76840
    264       0.7247      1.63304
    265       0.7247      1.63304
    266       0.7382      1.52231
    267       0.7382      1.52231
    268       0.7604      1.30737
    269       0.7729      1.17557
    270       0.8300      0.55531
    271       0.8606      0.30826
    272       0.8617      0.29964
    273       0.9111      0.08251
    274       0.9111      0.08251
    275       0.9203      0.06181
    276       0.9203      0.06181
    277       0.9561      0.01775
    278       1.0740      0.00000
    279       1.0996      0.00000
    280       1.0996      0.00000
    281       1.1067      0.00000
    282       1.1067      0.00000
    283       1.2155      0.00000
    284       1.2539      0.00000
    285       1.2741      0.00000
    286       1.2754      0.00000
    287       1.5252      0.00000
    288       1.5252      0.00000
    289       1.8681      0.00000
    290       1.9281      0.00000
    291       1.9281      0.00000
    292       2.1680      0.00000
    293       2.1680      0.00000
    294       2.3318      0.00000
    295       2.4673      0.00000
    296       2.4673      0.00000
    297       2.5050      0.00000
    298       2.6782      0.00000
    299       2.8414      0.00000
    300       2.8414      0.00000
    301       2.9191      0.00000
    302       3.1012      0.00000
    303       3.1012      0.00000
    304       3.2917      0.00000
    305       3.2918      0.00000
    306       3.3422      0.00000
    307       3.4026      0.00000
    308       3.4370      0.00000
    309       3.4371      0.00000
    310       3.9422      0.00000
    311       3.9866      0.00000
    312       3.9867      0.00000
    313       4.4350      0.00000
    314       4.4350      0.00000
    315       4.6303      0.00000
    316       4.6499      0.00000
    317       4.6502      0.00000
    318       4.6540      0.00000
    319       4.8668      0.00000
    320       4.8678      0.00000
    321       6.0600      0.00000
    322       6.2369      0.00000
    323       6.3779      0.00000
    324       6.4969      0.00000

 k-point     8 :       0.2000    0.2000    0.0000
  band No.  band energies     occupation 
      1      -8.1288      2.00000
      2      -7.4334      2.00000
      3      -6.8553      2.00000
      4      -6.8553      2.00000
      5      -6.5293      2.00000
      6      -6.2695      2.00000
      7      -6.2695      2.00000
      8      -5.7815      2.00000
      9      -5.6916      2.00000
     10      -5.6916      2.00000
     11      -5.6093      2.00000
     12      -5.6092      2.00000
     13      -5.5084      2.00000
     14      -5.5083      2.00000
     15      -5.4223      2.00000
     16      -5.4223      2.00000
     17      -5.4212      2.00000
     18      -5.3781      2.00000
     19      -5.2455      2.00000
     20      -5.2455      2.00000
     21      -5.1817      2.00000
     22      -5.1817      2.00000
     23      -5.0605      2.00000
     24      -5.0605      2.00000
     25      -5.0053      2.00000
     26      -5.0053      2.00000
     27      -4.9974      2.00000
     28      -4.9924      2.00000
     29      -4.9924      2.00000
     30      -4.9917      2.00000
     31      -4.8838      2.00000
     32      -4.8838      2.00000
     33      -4.7600      2.00000
     34      -4.7503      2.00000
     35      -4.6653      2.00000
     36      -4.6653      2.00000
     37      -4.5934      2.00000
     38      -4.5934      2.00000
     39      -4.5766      2.00000
     40      -4.5766      2.00000
     41      -4.5251      2.00000
     42      -4.5250      2.00000
     43      -4.5073      2.00000
     44      -4.4896      2.00000
     45      -4.4886      2.00000
     46      -4.4821      2.00000
     47      -4.4821      2.00000
     48      -4.4719      2.00000
     49      -4.4262      2.00000
     50      -4.4262      2.00000
     51      -4.3987      2.00000
     52      -4.3986      2.00000
     53      -4.2978      2.00000
     54      -4.2940      2.00000
     55      -4.2940      2.00000
     56      -4.2514      2.00000
     57      -4.1422      2.00000
     58      -4.0934      2.00000
     59      -4.0933      2.00000
     60      -4.0048      2.00000
     61      -4.0048      2.00000
     62      -3.9673      2.00000
     63      -3.9090      2.00000
     64      -3.8771      2.00000
     65      -3.8771      2.00000
     66      -3.8253      2.00000
     67      -3.8235      2.00000
     68      -3.7953      2.00000
     69      -3.7953      2.00000
     70      -3.6432      2.00000
     71      -3.6328      2.00000
     72      -3.6328      2.00000
     73      -3.6106      2.00000
     74      -3.6106      2.00000
     75      -3.5456      2.00000
     76      -3.5404      2.00000
     77      -3.5182      2.00000
     78      -3.4409      2.00000
     79      -3.4409      2.00000
     80      -3.3770      2.00000
     81      -3.3770      2.00000
     82      -3.3659      2.00000
     83      -3.3654      2.00000
     84      -3.3307      2.00000
     85      -3.2953      2.00000
     86      -3.2953      2.00000
     87      -3.2081      2.00000
     88      -3.2081      2.00000
     89      -3.1989      2.00000
     90      -3.1987      2.00000
     91      -3.1987      2.00000
     92      -3.1923      2.00000
     93      -3.1126      2.00000
     94      -3.1126      2.00000
     95      -3.0494      2.00000
     96      -2.9903      2.00000
     97      -2.9584      2.00000
     98      -2.9584      2.00000
     99      -2.9559      2.00000
    100      -2.9382      2.00000
    101      -2.8752      2.00000
    102      -2.8752      2.00000
    103      -2.8514      2.00000
    104      -2.8514      2.00000
    105      -2.8480      2.00000
    106      -2.7404      2.00000
    107      -2.7404      2.00000
    108      -2.7065      2.00000
    109      -2.6784      2.00000
    110      -2.6675      2.00000
    111      -2.6675      2.00000
    112      -2.6386      2.00000
    113      -2.6386      2.00000
    114      -2.6319      2.00000
    115      -2.6137      2.00000
    116      -2.6137      2.00000
    117      -2.6111      2.00000
    118      -2.5244      2.00000
    119      -2.4864      2.00000
    120      -2.4864      2.00000
    121      -2.4602      2.00000
    122      -2.4602      2.00000
    123      -2.4178      2.00000
    124      -2.4178      2.00000
    125      -2.3815      2.00000
    126      -2.3634      2.00000
    127      -2.3597      2.00000
    128      -2.3572      2.00000
    129      -2.3498      2.00000
    130      -2.3498      2.00000
    131      -2.3439      2.00000
    132      -2.3439      2.00000
    133      -2.2399      2.00000
    134      -2.2280      2.00000
    135      -2.2279      2.00000
    136      -2.2083      2.00000
    137      -2.1874      2.00000
    138      -2.1873      2.00000
    139      -2.1614      2.00000
    140      -2.1614      2.00000
    141      -2.1481      2.00000
    142      -2.1355      2.00000
    143      -2.1260      2.00000
    144      -2.0979      2.00000
    145      -2.0669      2.00000
    146      -2.0195      2.00000
    147      -2.0195      2.00000
    148      -1.9637      2.00000
    149      -1.9514      2.00000
    150      -1.9514      2.00000
    151      -1.9325      2.00000
    152      -1.9236      2.00000
    153      -1.9236      2.00000
    154      -1.9233      2.00000
    155      -1.9233      2.00000
    156      -1.8760      2.00000
    157      -1.8731      2.00000
    158      -1.8731      2.00000
    159      -1.8705      2.00000
    160      -1.8674      2.00000
    161      -1.7931      2.00000
    162      -1.7931      2.00000
    163      -1.7799      2.00000
    164      -1.7701      2.00000
    165      -1.7701      2.00000
    166      -1.7591      2.00000
    167      -1.7037      2.00000
    168      -1.6021      2.00000
    169      -1.4791      2.00000
    170      -1.4791      2.00000
    171      -1.4638      2.00000
    172      -1.4638      2.00000
    173      -1.4306      2.00000
    174      -1.4306      2.00000
    175      -1.4295      2.00000
    176      -1.4295      2.00000
    177      -1.3509      2.00000
    178      -1.2749      2.00000
    179      -1.2749      2.00000
    180      -1.2058      2.00000
    181      -1.1741      2.00000
    182      -1.1741      2.00000
    183      -1.1592      2.00000
    184      -1.1330      2.00000
    185      -1.1330      2.00000
    186      -1.1213      2.00000
    187      -1.0805      2.00000
    188      -1.0804      2.00000
    189      -1.0597      2.00000
    190      -1.0490      2.00000
    191      -1.0341      2.00000
    192      -1.0232      2.00000
    193      -1.0232      2.00000
    194      -0.9397      2.00000
    195      -0.9387      2.00000
    196      -0.9387      2.00000
    197      -0.8843      2.00000
    198      -0.8843      2.00000
    199      -0.8662      2.00000
    200      -0.8662      2.00000
    201      -0.7602      2.00000
    202      -0.7588      2.00000
    203      -0.7588      2.00000
    204      -0.6896      2.00000
    205      -0.6896      2.00000
    206      -0.6716      2.00000
    207      -0.6417      2.00000
    208      -0.6373      2.00000
    209      -0.5932      2.00000
    210      -0.5755      2.00000
    211      -0.5755      2.00000
    212      -0.5015      2.00000
    213      -0.4507      2.00000
    214      -0.4507      2.00000
    215      -0.4025      2.00000
    216      -0.3948      2.00000
    217      -0.3948      2.00000
    218      -0.3536      2.00000
    219      -0.3535      2.00000
    220      -0.2716      2.00000
    221      -0.2526      2.00000
    222      -0.2139      2.00000
    223      -0.2011      2.00000
    224      -0.2011      2.00000
    225      -0.1769      2.00000
    226      -0.1769      2.00000
    227      -0.1403      2.00000
    228      -0.1403      2.00000
    229      -0.1155      2.00000
    230      -0.1155      2.00000
    231      -0.0931      2.00000
    232      -0.0670      2.00000
    233      -0.0402      2.00000
    234      -0.0402      2.00000
    235       0.0204      2.00000
    236       0.0204      2.00000
    237       0.1795      2.00000
    238       0.2191      2.00000
    239       0.2192      2.00000
    240       0.2448      2.00000
    241       0.2448      2.00000
    242       0.2940      2.00000
    243       0.3742      2.00000
    244       0.4119      2.00000
    245       0.4493      1.99999
    246       0.4526      1.99999
    247       0.4526      1.99999
    248       0.4578      1.99998
    249       0.4578      1.99998
    250       0.4735      1.99997
    251       0.4735      1.99997
    252       0.5292      1.99975
    253       0.5518      1.99919
    254       0.5518      1.99919
    255       0.5806      1.99668
    256       0.5806      1.99668
    257       0.5867      1.99563
    258       0.5871      1.99554
    259       0.5935      1.99415
    260       0.6494      1.95026
    261       0.6498      1.94982
    262       0.6498      1.94982
    263       0.7166      1.69047
    264       0.7166      1.69046
    265       0.7296      1.59392
    266       0.7296      1.59391
    267       0.7401      1.50408
    268       0.7401      1.50407
    269       0.7412      1.49486
    270       0.8110      0.74950
    271       0.8526      0.36351
    272       0.8601      0.31091
    273       0.8601      0.31091
    274       0.8758      0.21648
    275       0.9222      0.05854
    276       0.9472      0.02445
    277       0.9473      0.02444
    278       1.0345      0.00050
    279       1.0345      0.00050
    280       1.0697      0.00006
    281       1.0697      0.00006
    282       1.0983      0.00000
    283       1.1030      0.00000
    284       1.1232      0.00000
    285       1.1232      0.00000
    286       1.1667      0.00000
    287       1.1667      0.00000
    288       1.3270      0.00000
    289       1.3270      0.00000
    290       1.6187      0.00000
    291       1.6188      0.00000
    292       2.1136      0.00000
    293       2.1137      0.00000
    294       2.2155      0.00000
    295       2.2155      0.00000
    296       2.2728      0.00000
    297       2.2810      0.00000
    298       2.2810      0.00000
    299       2.2853      0.00000
    300       2.2854      0.00000
    301       2.9842      0.00000
    302       2.9842      0.00000
    303       3.0810      0.00000
    304       3.1145      0.00000
    305       3.4709      0.00000
    306       3.6235      0.00000
    307       3.6235      0.00000
    308       3.8230      0.00000
    309       3.8230      0.00000
    310       4.0694      0.00000
    311       4.2144      0.00000
    312       4.3715      0.00000
    313       4.3715      0.00000
    314       4.3790      0.00000
    315       4.6726      0.00000
    316       4.9917      0.00000
    317       5.0208      0.00000
    318       5.2239      0.00000
    319       5.2279      0.00000
    320       5.3995      0.00000
    321       5.4039      0.00000
    322       5.4980      0.00000
    323       5.7461      0.00000
    324       6.4000      0.00000

 k-point     9 :      -0.2000    0.4000    0.0000
  band No.  band energies     occupation 
      1      -8.1288      2.00000
      2      -7.4334      2.00000
      3      -6.8553      2.00000
      4      -6.8553      2.00000
      5      -6.5293      2.00000
      6      -6.2695      2.00000
      7      -6.2695      2.00000
      8      -5.7815      2.00000
      9      -5.6916      2.00000
     10      -5.6916      2.00000
     11      -5.6093      2.00000
     12      -5.6092      2.00000
     13      -5.5083      2.00000
     14      -5.5083      2.00000
     15      -5.4223      2.00000
     16      -5.4222      2.00000
     17      -5.4212      2.00000
     18      -5.3781      2.00000
     19      -5.2455      2.00000
     20      -5.2455      2.00000
     21      -5.1817      2.00000
     22      -5.1817      2.00000
     23      -5.0605      2.00000
     24      -5.0605      2.00000
     25      -5.0053      2.00000
     26      -5.0053      2.00000
     27      -4.9974      2.00000
     28      -4.9924      2.00000
     29      -4.9924      2.00000
     30      -4.9917      2.00000
     31      -4.8838      2.00000
     32      -4.8838      2.00000
     33      -4.7600      2.00000
     34      -4.7503      2.00000
     35      -4.6653      2.00000
     36      -4.6653      2.00000
     37      -4.5934      2.00000
     38      -4.5934      2.00000
     39      -4.5766      2.00000
     40      -4.5766      2.00000
     41      -4.5251      2.00000
     42      -4.5250      2.00000
     43      -4.5073      2.00000
     44      -4.4896      2.00000
     45      -4.4886      2.00000
     46      -4.4821      2.00000
     47      -4.4821      2.00000
     48      -4.4719      2.00000
     49      -4.4262      2.00000
     50      -4.4262      2.00000
     51      -4.3987      2.00000
     52      -4.3986      2.00000
     53      -4.2978      2.00000
     54      -4.2940      2.00000
     55      -4.2940      2.00000
     56      -4.2514      2.00000
     57      -4.1422      2.00000
     58      -4.0934      2.00000
     59      -4.0933      2.00000
     60      -4.0048      2.00000
     61      -4.0048      2.00000
     62      -3.9673      2.00000
     63      -3.9090      2.00000
     64      -3.8772      2.00000
     65      -3.8771      2.00000
     66      -3.8253      2.00000
     67      -3.8235      2.00000
     68      -3.7953      2.00000
     69      -3.7953      2.00000
     70      -3.6432      2.00000
     71      -3.6328      2.00000
     72      -3.6328      2.00000
     73      -3.6106      2.00000
     74      -3.6106      2.00000
     75      -3.5456      2.00000
     76      -3.5404      2.00000
     77      -3.5182      2.00000
     78      -3.4409      2.00000
     79      -3.4409      2.00000
     80      -3.3770      2.00000
     81      -3.3770      2.00000
     82      -3.3659      2.00000
     83      -3.3654      2.00000
     84      -3.3307      2.00000
     85      -3.2953      2.00000
     86      -3.2953      2.00000
     87      -3.2081      2.00000
     88      -3.2081      2.00000
     89      -3.1989      2.00000
     90      -3.1987      2.00000
     91      -3.1987      2.00000
     92      -3.1923      2.00000
     93      -3.1126      2.00000
     94      -3.1126      2.00000
     95      -3.0494      2.00000
     96      -2.9903      2.00000
     97      -2.9584      2.00000
     98      -2.9584      2.00000
     99      -2.9559      2.00000
    100      -2.9382      2.00000
    101      -2.8752      2.00000
    102      -2.8752      2.00000
    103      -2.8514      2.00000
    104      -2.8514      2.00000
    105      -2.8480      2.00000
    106      -2.7404      2.00000
    107      -2.7404      2.00000
    108      -2.7065      2.00000
    109      -2.6784      2.00000
    110      -2.6675      2.00000
    111      -2.6675      2.00000
    112      -2.6386      2.00000
    113      -2.6386      2.00000
    114      -2.6319      2.00000
    115      -2.6137      2.00000
    116      -2.6137      2.00000
    117      -2.6111      2.00000
    118      -2.5244      2.00000
    119      -2.4864      2.00000
    120      -2.4864      2.00000
    121      -2.4602      2.00000
    122      -2.4602      2.00000
    123      -2.4178      2.00000
    124      -2.4178      2.00000
    125      -2.3815      2.00000
    126      -2.3634      2.00000
    127      -2.3597      2.00000
    128      -2.3572      2.00000
    129      -2.3498      2.00000
    130      -2.3498      2.00000
    131      -2.3439      2.00000
    132      -2.3439      2.00000
    133      -2.2399      2.00000
    134      -2.2280      2.00000
    135      -2.2279      2.00000
    136      -2.2083      2.00000
    137      -2.1874      2.00000
    138      -2.1873      2.00000
    139      -2.1614      2.00000
    140      -2.1614      2.00000
    141      -2.1481      2.00000
    142      -2.1355      2.00000
    143      -2.1260      2.00000
    144      -2.0979      2.00000
    145      -2.0669      2.00000
    146      -2.0195      2.00000
    147      -2.0195      2.00000
    148      -1.9637      2.00000
    149      -1.9514      2.00000
    150      -1.9514      2.00000
    151      -1.9325      2.00000
    152      -1.9236      2.00000
    153      -1.9236      2.00000
    154      -1.9233      2.00000
    155      -1.9233      2.00000
    156      -1.8760      2.00000
    157      -1.8731      2.00000
    158      -1.8731      2.00000
    159      -1.8705      2.00000
    160      -1.8674      2.00000
    161      -1.7931      2.00000
    162      -1.7931      2.00000
    163      -1.7799      2.00000
    164      -1.7701      2.00000
    165      -1.7701      2.00000
    166      -1.7591      2.00000
    167      -1.7037      2.00000
    168      -1.6021      2.00000
    169      -1.4791      2.00000
    170      -1.4791      2.00000
    171      -1.4638      2.00000
    172      -1.4638      2.00000
    173      -1.4306      2.00000
    174      -1.4306      2.00000
    175      -1.4295      2.00000
    176      -1.4295      2.00000
    177      -1.3509      2.00000
    178      -1.2749      2.00000
    179      -1.2749      2.00000
    180      -1.2058      2.00000
    181      -1.1741      2.00000
    182      -1.1741      2.00000
    183      -1.1592      2.00000
    184      -1.1330      2.00000
    185      -1.1330      2.00000
    186      -1.1213      2.00000
    187      -1.0805      2.00000
    188      -1.0804      2.00000
    189      -1.0597      2.00000
    190      -1.0490      2.00000
    191      -1.0341      2.00000
    192      -1.0232      2.00000
    193      -1.0232      2.00000
    194      -0.9397      2.00000
    195      -0.9387      2.00000
    196      -0.9387      2.00000
    197      -0.8843      2.00000
    198      -0.8843      2.00000
    199      -0.8662      2.00000
    200      -0.8662      2.00000
    201      -0.7602      2.00000
    202      -0.7588      2.00000
    203      -0.7588      2.00000
    204      -0.6896      2.00000
    205      -0.6896      2.00000
    206      -0.6716      2.00000
    207      -0.6417      2.00000
    208      -0.6373      2.00000
    209      -0.5932      2.00000
    210      -0.5755      2.00000
    211      -0.5755      2.00000
    212      -0.5015      2.00000
    213      -0.4507      2.00000
    214      -0.4507      2.00000
    215      -0.4025      2.00000
    216      -0.3948      2.00000
    217      -0.3947      2.00000
    218      -0.3536      2.00000
    219      -0.3535      2.00000
    220      -0.2716      2.00000
    221      -0.2526      2.00000
    222      -0.2140      2.00000
    223      -0.2011      2.00000
    224      -0.2011      2.00000
    225      -0.1769      2.00000
    226      -0.1769      2.00000
    227      -0.1403      2.00000
    228      -0.1403      2.00000
    229      -0.1155      2.00000
    230      -0.1155      2.00000
    231      -0.0931      2.00000
    232      -0.0670      2.00000
    233      -0.0402      2.00000
    234      -0.0402      2.00000
    235       0.0204      2.00000
    236       0.0204      2.00000
    237       0.1795      2.00000
    238       0.2191      2.00000
    239       0.2192      2.00000
    240       0.2448      2.00000
    241       0.2448      2.00000
    242       0.2941      2.00000
    243       0.3742      2.00000
    244       0.4119      2.00000
    245       0.4493      1.99999
    246       0.4526      1.99999
    247       0.4526      1.99999
    248       0.4578      1.99998
    249       0.4578      1.99998
    250       0.4735      1.99997
    251       0.4735      1.99997
    252       0.5292      1.99975
    253       0.5518      1.99919
    254       0.5518      1.99919
    255       0.5806      1.99668
    256       0.5806      1.99668
    257       0.5867      1.99563
    258       0.5871      1.99555
    259       0.5936      1.99413
    260       0.6494      1.95026
    261       0.6498      1.94982
    262       0.6498      1.94982
    263       0.7166      1.69047
    264       0.7166      1.69046
    265       0.7296      1.59392
    266       0.7296      1.59391
    267       0.7401      1.50410
    268       0.7402      1.50405
    269       0.7412      1.49487
    270       0.8110      0.74949
    271       0.8526      0.36352
    272       0.8601      0.31091
    273       0.8601      0.31090
    274       0.8758      0.21647
    275       0.9222      0.05855
    276       0.9472      0.02444
    277       0.9473      0.02444
    278       1.0345      0.00050
    279       1.0345      0.00050
    280       1.0697      0.00006
    281       1.0697      0.00006
    282       1.0983      0.00000
    283       1.1030      0.00000
    284       1.1232      0.00000
    285       1.1232      0.00000
    286       1.1667      0.00000
    287       1.1667      0.00000
    288       1.3270      0.00000
    289       1.3270      0.00000
    290       1.6187      0.00000
    291       1.6188      0.00000
    292       2.1136      0.00000
    293       2.1136      0.00000
    294       2.2155      0.00000
    295       2.2155      0.00000
    296       2.2729      0.00000
    297       2.2810      0.00000
    298       2.2810      0.00000
    299       2.2853      0.00000
    300       2.2853      0.00000
    301       2.9842      0.00000
    302       2.9842      0.00000
    303       3.0810      0.00000
    304       3.1145      0.00000
    305       3.4709      0.00000
    306       3.6235      0.00000
    307       3.6235      0.00000
    308       3.8230      0.00000
    309       3.8231      0.00000
    310       4.0688      0.00000
    311       4.2139      0.00000
    312       4.3714      0.00000
    313       4.3715      0.00000
    314       4.3807      0.00000
    315       4.6685      0.00000
    316       4.9968      0.00000
    317       5.0179      0.00000
    318       5.2145      0.00000
    319       5.2213      0.00000
    320       5.3982      0.00000
    321       5.4003      0.00000
    322       5.5205      0.00000
    323       5.8875      0.00000
    324       6.2990      0.00000

 k-point    10 :      -0.4000    0.2000    0.0000
  band No.  band energies     occupation 
      1      -8.1288      2.00000
      2      -7.4334      2.00000
      3      -6.8553      2.00000
      4      -6.8553      2.00000
      5      -6.5293      2.00000
      6      -6.2696      2.00000
      7      -6.2695      2.00000
      8      -5.7815      2.00000
      9      -5.6916      2.00000
     10      -5.6916      2.00000
     11      -5.6093      2.00000
     12      -5.6092      2.00000
     13      -5.5084      2.00000
     14      -5.5083      2.00000
     15      -5.4223      2.00000
     16      -5.4222      2.00000
     17      -5.4212      2.00000
     18      -5.3781      2.00000
     19      -5.2455      2.00000
     20      -5.2455      2.00000
     21      -5.1817      2.00000
     22      -5.1817      2.00000
     23      -5.0605      2.00000
     24      -5.0605      2.00000
     25      -5.0053      2.00000
     26      -5.0053      2.00000
     27      -4.9974      2.00000
     28      -4.9924      2.00000
     29      -4.9924      2.00000
     30      -4.9917      2.00000
     31      -4.8838      2.00000
     32      -4.8838      2.00000
     33      -4.7600      2.00000
     34      -4.7503      2.00000
     35      -4.6653      2.00000
     36      -4.6653      2.00000
     37      -4.5934      2.00000
     38      -4.5934      2.00000
     39      -4.5766      2.00000
     40      -4.5766      2.00000
     41      -4.5251      2.00000
     42      -4.5250      2.00000
     43      -4.5073      2.00000
     44      -4.4896      2.00000
     45      -4.4886      2.00000
     46      -4.4821      2.00000
     47      -4.4821      2.00000
     48      -4.4719      2.00000
     49      -4.4263      2.00000
     50      -4.4262      2.00000
     51      -4.3987      2.00000
     52      -4.3986      2.00000
     53      -4.2978      2.00000
     54      -4.2940      2.00000
     55      -4.2940      2.00000
     56      -4.2514      2.00000
     57      -4.1422      2.00000
     58      -4.0934      2.00000
     59      -4.0933      2.00000
     60      -4.0048      2.00000
     61      -4.0048      2.00000
     62      -3.9673      2.00000
     63      -3.9090      2.00000
     64      -3.8772      2.00000
     65      -3.8771      2.00000
     66      -3.8253      2.00000
     67      -3.8235      2.00000
     68      -3.7953      2.00000
     69      -3.7953      2.00000
     70      -3.6432      2.00000
     71      -3.6328      2.00000
     72      -3.6328      2.00000
     73      -3.6106      2.00000
     74      -3.6106      2.00000
     75      -3.5456      2.00000
     76      -3.5404      2.00000
     77      -3.5182      2.00000
     78      -3.4409      2.00000
     79      -3.4409      2.00000
     80      -3.3770      2.00000
     81      -3.3770      2.00000
     82      -3.3659      2.00000
     83      -3.3654      2.00000
     84      -3.3307      2.00000
     85      -3.2953      2.00000
     86      -3.2953      2.00000
     87      -3.2081      2.00000
     88      -3.2081      2.00000
     89      -3.1989      2.00000
     90      -3.1988      2.00000
     91      -3.1987      2.00000
     92      -3.1923      2.00000
     93      -3.1126      2.00000
     94      -3.1126      2.00000
     95      -3.0494      2.00000
     96      -2.9903      2.00000
     97      -2.9584      2.00000
     98      -2.9584      2.00000
     99      -2.9559      2.00000
    100      -2.9382      2.00000
    101      -2.8752      2.00000
    102      -2.8752      2.00000
    103      -2.8514      2.00000
    104      -2.8514      2.00000
    105      -2.8480      2.00000
    106      -2.7404      2.00000
    107      -2.7404      2.00000
    108      -2.7065      2.00000
    109      -2.6784      2.00000
    110      -2.6675      2.00000
    111      -2.6675      2.00000
    112      -2.6386      2.00000
    113      -2.6386      2.00000
    114      -2.6319      2.00000
    115      -2.6137      2.00000
    116      -2.6137      2.00000
    117      -2.6111      2.00000
    118      -2.5244      2.00000
    119      -2.4864      2.00000
    120      -2.4864      2.00000
    121      -2.4602      2.00000
    122      -2.4602      2.00000
    123      -2.4178      2.00000
    124      -2.4178      2.00000
    125      -2.3815      2.00000
    126      -2.3634      2.00000
    127      -2.3597      2.00000
    128      -2.3572      2.00000
    129      -2.3498      2.00000
    130      -2.3498      2.00000
    131      -2.3439      2.00000
    132      -2.3439      2.00000
    133      -2.2399      2.00000
    134      -2.2280      2.00000
    135      -2.2279      2.00000
    136      -2.2083      2.00000
    137      -2.1874      2.00000
    138      -2.1873      2.00000
    139      -2.1614      2.00000
    140      -2.1614      2.00000
    141      -2.1481      2.00000
    142      -2.1355      2.00000
    143      -2.1260      2.00000
    144      -2.0979      2.00000
    145      -2.0669      2.00000
    146      -2.0195      2.00000
    147      -2.0195      2.00000
    148      -1.9637      2.00000
    149      -1.9514      2.00000
    150      -1.9514      2.00000
    151      -1.9325      2.00000
    152      -1.9236      2.00000
    153      -1.9236      2.00000
    154      -1.9233      2.00000
    155      -1.9233      2.00000
    156      -1.8760      2.00000
    157      -1.8731      2.00000
    158      -1.8731      2.00000
    159      -1.8705      2.00000
    160      -1.8674      2.00000
    161      -1.7931      2.00000
    162      -1.7931      2.00000
    163      -1.7799      2.00000
    164      -1.7701      2.00000
    165      -1.7701      2.00000
    166      -1.7591      2.00000
    167      -1.7037      2.00000
    168      -1.6021      2.00000
    169      -1.4791      2.00000
    170      -1.4791      2.00000
    171      -1.4638      2.00000
    172      -1.4638      2.00000
    173      -1.4306      2.00000
    174      -1.4306      2.00000
    175      -1.4295      2.00000
    176      -1.4295      2.00000
    177      -1.3509      2.00000
    178      -1.2749      2.00000
    179      -1.2749      2.00000
    180      -1.2058      2.00000
    181      -1.1741      2.00000
    182      -1.1741      2.00000
    183      -1.1592      2.00000
    184      -1.1330      2.00000
    185      -1.1330      2.00000
    186      -1.1213      2.00000
    187      -1.0805      2.00000
    188      -1.0804      2.00000
    189      -1.0597      2.00000
    190      -1.0490      2.00000
    191      -1.0341      2.00000
    192      -1.0232      2.00000
    193      -1.0232      2.00000
    194      -0.9397      2.00000
    195      -0.9387      2.00000
    196      -0.9387      2.00000
    197      -0.8843      2.00000
    198      -0.8843      2.00000
    199      -0.8662      2.00000
    200      -0.8662      2.00000
    201      -0.7602      2.00000
    202      -0.7589      2.00000
    203      -0.7588      2.00000
    204      -0.6896      2.00000
    205      -0.6896      2.00000
    206      -0.6716      2.00000
    207      -0.6417      2.00000
    208      -0.6373      2.00000
    209      -0.5932      2.00000
    210      -0.5755      2.00000
    211      -0.5755      2.00000
    212      -0.5015      2.00000
    213      -0.4507      2.00000
    214      -0.4507      2.00000
    215      -0.4025      2.00000
    216      -0.3948      2.00000
    217      -0.3947      2.00000
    218      -0.3536      2.00000
    219      -0.3535      2.00000
    220      -0.2716      2.00000
    221      -0.2526      2.00000
    222      -0.2140      2.00000
    223      -0.2011      2.00000
    224      -0.2011      2.00000
    225      -0.1769      2.00000
    226      -0.1769      2.00000
    227      -0.1403      2.00000
    228      -0.1403      2.00000
    229      -0.1155      2.00000
    230      -0.1155      2.00000
    231      -0.0931      2.00000
    232      -0.0670      2.00000
    233      -0.0402      2.00000
    234      -0.0402      2.00000
    235       0.0204      2.00000
    236       0.0204      2.00000
    237       0.1795      2.00000
    238       0.2191      2.00000
    239       0.2192      2.00000
    240       0.2448      2.00000
    241       0.2448      2.00000
    242       0.2941      2.00000
    243       0.3742      2.00000
    244       0.4119      2.00000
    245       0.4493      1.99999
    246       0.4526      1.99999
    247       0.4526      1.99999
    248       0.4578      1.99998
    249       0.4578      1.99998
    250       0.4735      1.99997
    251       0.4735      1.99997
    252       0.5292      1.99975
    253       0.5518      1.99919
    254       0.5518      1.99919
    255       0.5806      1.99668
    256       0.5806      1.99667
    257       0.5867      1.99563
    258       0.5867      1.99563
    259       0.5940      1.99401
    260       0.6494      1.95026
    261       0.6498      1.94982
    262       0.6498      1.94982
    263       0.7166      1.69047
    264       0.7166      1.69046
    265       0.7296      1.59392
    266       0.7296      1.59391
    267       0.7401      1.50410
    268       0.7401      1.50405
    269       0.7412      1.49487
    270       0.8110      0.74949
    271       0.8526      0.36351
    272       0.8601      0.31091
    273       0.8601      0.31090
    274       0.8758      0.21647
    275       0.9222      0.05855
    276       0.9472      0.02445
    277       0.9473      0.02444
    278       1.0345      0.00050
    279       1.0345      0.00050
    280       1.0697      0.00006
    281       1.0697      0.00006
    282       1.0983      0.00000
    283       1.1030      0.00000
    284       1.1232      0.00000
    285       1.1232      0.00000
    286       1.1667      0.00000
    287       1.1667      0.00000
    288       1.3270      0.00000
    289       1.3270      0.00000
    290       1.6188      0.00000
    291       1.6188      0.00000
    292       2.1136      0.00000
    293       2.1136      0.00000
    294       2.2155      0.00000
    295       2.2155      0.00000
    296       2.2729      0.00000
    297       2.2810      0.00000
    298       2.2810      0.00000
    299       2.2853      0.00000
    300       2.2854      0.00000
    301       2.9842      0.00000
    302       2.9842      0.00000
    303       3.0810      0.00000
    304       3.1145      0.00000
    305       3.4709      0.00000
    306       3.6235      0.00000
    307       3.6235      0.00000
    308       3.8230      0.00000
    309       3.8231      0.00000
    310       4.0687      0.00000
    311       4.2139      0.00000
    312       4.3715      0.00000
    313       4.3715      0.00000
    314       4.3789      0.00000
    315       4.6691      0.00000
    316       4.9920      0.00000
    317       5.0059      0.00000
    318       5.2147      0.00000
    319       5.2199      0.00000
    320       5.3982      0.00000
    321       5.4016      0.00000
    322       5.5183      0.00000
    323       5.9897      0.00000
    324       6.2525      0.00000

 k-point    11 :       0.4000    0.2000    0.0000
  band No.  band energies     occupation 
      1      -7.5786      2.00000
      2      -7.5785      2.00000
      3      -6.9466      2.00000
      4      -6.9131      2.00000
      5      -6.9130      2.00000
      6      -6.3396      2.00000
      7      -6.0363      2.00000
      8      -6.0362      2.00000
      9      -5.6868      2.00000
     10      -5.5289      2.00000
     11      -5.4875      2.00000
     12      -5.4787      2.00000
     13      -5.4037      2.00000
     14      -5.4037      2.00000
     15      -5.3005      2.00000
     16      -5.3004      2.00000
     17      -5.2426      2.00000
     18      -5.2426      2.00000
     19      -5.2253      2.00000
     20      -5.1643      2.00000
     21      -5.0902      2.00000
     22      -5.0845      2.00000
     23      -5.0754      2.00000
     24      -5.0754      2.00000
     25      -4.9550      2.00000
     26      -4.9549      2.00000
     27      -4.9119      2.00000
     28      -4.9119      2.00000
     29      -4.9009      2.00000
     30      -4.9009      2.00000
     31      -4.8749      2.00000
     32      -4.8749      2.00000
     33      -4.8604      2.00000
     34      -4.8604      2.00000
     35      -4.8454      2.00000
     36      -4.8004      2.00000
     37      -4.7914      2.00000
     38      -4.7913      2.00000
     39      -4.7098      2.00000
     40      -4.7098      2.00000
     41      -4.6582      2.00000
     42      -4.5960      2.00000
     43      -4.4831      2.00000
     44      -4.4792      2.00000
     45      -4.4792      2.00000
     46      -4.4754      2.00000
     47      -4.4577      2.00000
     48      -4.4577      2.00000
     49      -4.4364      2.00000
     50      -4.4114      2.00000
     51      -4.3053      2.00000
     52      -4.3053      2.00000
     53      -4.3031      2.00000
     54      -4.3030      2.00000
     55      -4.2582      2.00000
     56      -4.1904      2.00000
     57      -4.1904      2.00000
     58      -4.1841      2.00000
     59      -4.1841      2.00000
     60      -4.0028      2.00000
     61      -3.9123      2.00000
     62      -3.9095      2.00000
     63      -3.9095      2.00000
     64      -3.8269      2.00000
     65      -3.7599      2.00000
     66      -3.7466      2.00000
     67      -3.7466      2.00000
     68      -3.7379      2.00000
     69      -3.7378      2.00000
     70      -3.7008      2.00000
     71      -3.6824      2.00000
     72      -3.6707      2.00000
     73      -3.5825      2.00000
     74      -3.5825      2.00000
     75      -3.5140      2.00000
     76      -3.5081      2.00000
     77      -3.5006      2.00000
     78      -3.5006      2.00000
     79      -3.4069      2.00000
     80      -3.4069      2.00000
     81      -3.3916      2.00000
     82      -3.3916      2.00000
     83      -3.3682      2.00000
     84      -3.3455      2.00000
     85      -3.3455      2.00000
     86      -3.2613      2.00000
     87      -3.2613      2.00000
     88      -3.2015      2.00000
     89      -3.1964      2.00000
     90      -3.1487      2.00000
     91      -3.1420      2.00000
     92      -3.1359      2.00000
     93      -3.1359      2.00000
     94      -3.1271      2.00000
     95      -3.1271      2.00000
     96      -3.1190      2.00000
     97      -3.1189      2.00000
     98      -3.1145      2.00000
     99      -3.0636      2.00000
    100      -3.0636      2.00000
    101      -2.9685      2.00000
    102      -2.9684      2.00000
    103      -2.9643      2.00000
    104      -2.9556      2.00000
    105      -2.9556      2.00000
    106      -2.8822      2.00000
    107      -2.7851      2.00000
    108      -2.7851      2.00000
    109      -2.7832      2.00000
    110      -2.7716      2.00000
    111      -2.7716      2.00000
    112      -2.7328      2.00000
    113      -2.7023      2.00000
    114      -2.6721      2.00000
    115      -2.6557      2.00000
    116      -2.6557      2.00000
    117      -2.6165      2.00000
    118      -2.5368      2.00000
    119      -2.5367      2.00000
    120      -2.5299      2.00000
    121      -2.5265      2.00000
    122      -2.5265      2.00000
    123      -2.5205      2.00000
    124      -2.4820      2.00000
    125      -2.4810      2.00000
    126      -2.4810      2.00000
    127      -2.4349      2.00000
    128      -2.4348      2.00000
    129      -2.4162      2.00000
    130      -2.4071      2.00000
    131      -2.4071      2.00000
    132      -2.3071      2.00000
    133      -2.2483      2.00000
    134      -2.2294      2.00000
    135      -2.2294      2.00000
    136      -2.2071      2.00000
    137      -2.2071      2.00000
    138      -2.1931      2.00000
    139      -2.1627      2.00000
    140      -2.1627      2.00000
    141      -2.1444      2.00000
    142      -2.1443      2.00000
    143      -2.0685      2.00000
    144      -2.0685      2.00000
    145      -2.0458      2.00000
    146      -2.0458      2.00000
    147      -2.0137      2.00000
    148      -2.0137      2.00000
    149      -1.9936      2.00000
    150      -1.9364      2.00000
    151      -1.9364      2.00000
    152      -1.9316      2.00000
    153      -1.9316      2.00000
    154      -1.9020      2.00000
    155      -1.8910      2.00000
    156      -1.8757      2.00000
    157      -1.8757      2.00000
    158      -1.8673      2.00000
    159      -1.8673      2.00000
    160      -1.8526      2.00000
    161      -1.8339      2.00000
    162      -1.7935      2.00000
    163      -1.7934      2.00000
    164      -1.7120      2.00000
    165      -1.7100      2.00000
    166      -1.7099      2.00000
    167      -1.6636      2.00000
    168      -1.6636      2.00000
    169      -1.5468      2.00000
    170      -1.5076      2.00000
    171      -1.4952      2.00000
    172      -1.4952      2.00000
    173      -1.4680      2.00000
    174      -1.4680      2.00000
    175      -1.3525      2.00000
    176      -1.3334      2.00000
    177      -1.3334      2.00000
    178      -1.2991      2.00000
    179      -1.2667      2.00000
    180      -1.2561      2.00000
    181      -1.2561      2.00000
    182      -1.2545      2.00000
    183      -1.2545      2.00000
    184      -1.2342      2.00000
    185      -1.1841      2.00000
    186      -1.1490      2.00000
    187      -1.1489      2.00000
    188      -1.0901      2.00000
    189      -1.0901      2.00000
    190      -1.0897      2.00000
    191      -1.0897      2.00000
    192      -1.0708      2.00000
    193      -1.0629      2.00000
    194      -1.0618      2.00000
    195      -1.0212      2.00000
    196      -1.0212      2.00000
    197      -1.0128      2.00000
    198      -0.8955      2.00000
    199      -0.8955      2.00000
    200      -0.8834      2.00000
    201      -0.8834      2.00000
    202      -0.8412      2.00000
    203      -0.7517      2.00000
    204      -0.7221      2.00000
    205      -0.7221      2.00000
    206      -0.6605      2.00000
    207      -0.6031      2.00000
    208      -0.5943      2.00000
    209      -0.5943      2.00000
    210      -0.5370      2.00000
    211      -0.5370      2.00000
    212      -0.5157      2.00000
    213      -0.5157      2.00000
    214      -0.4996      2.00000
    215      -0.4570      2.00000
    216      -0.4569      2.00000
    217      -0.4280      2.00000
    218      -0.4116      2.00000
    219      -0.4116      2.00000
    220      -0.3994      2.00000
    221      -0.3994      2.00000
    222      -0.2444      2.00000
    223      -0.2379      2.00000
    224      -0.2379      2.00000
    225      -0.2375      2.00000
    226      -0.2364      2.00000
    227      -0.2363      2.00000
    228      -0.2094      2.00000
    229      -0.1733      2.00000
    230      -0.0751      2.00000
    231       0.0113      2.00000
    232       0.0114      2.00000
    233       0.0723      2.00000
    234       0.0723      2.00000
    235       0.1125      2.00000
    236       0.1125      2.00000
    237       0.1471      2.00000
    238       0.1906      2.00000
    239       0.2128      2.00000
    240       0.2638      2.00000
    241       0.2638      2.00000
    242       0.3464      2.00000
    243       0.3526      2.00000
    244       0.3526      2.00000
    245       0.3671      2.00000
    246       0.3839      2.00000
    247       0.3839      2.00000
    248       0.4567      1.99999
    249       0.4567      1.99999
    250       0.5321      1.99971
    251       0.5843      1.99610
    252       0.5985      1.99274
    253       0.6131      1.98684
    254       0.6225      1.98106
    255       0.6538      1.94269
    256       0.6538      1.94268
    257       0.6658      1.91685
    258       0.6658      1.91685
    259       0.7114      1.72268
    260       0.7115      1.72261
    261       0.7133      1.71135
    262       0.7133      1.71134
    263       0.7393      1.51169
    264       0.7393      1.51168
    265       0.7622      1.29065
    266       0.7897      0.98315
    267       0.8194      0.66151
    268       0.8194      0.66145
    269       0.8415      0.45246
    270       0.8630      0.29141
    271       0.9126      0.07900
    272       0.9126      0.07899
    273       0.9197      0.06313
    274       0.9197      0.06313
    275       0.9310      0.04363
    276       1.0514      0.00000
    277       1.0903      0.00000
    278       1.1022      0.00000
    279       1.1056      0.00000
    280       1.1056      0.00000
    281       1.1120      0.00000
    282       1.1120      0.00000
    283       1.1687      0.00000
    284       1.1990      0.00000
    285       1.3862      0.00000
    286       1.6775      0.00000
    287       1.6775      0.00000
    288       2.0660      0.00000
    289       2.0660      0.00000
    290       2.2174      0.00000
    291       2.2262      0.00000
    292       2.2411      0.00000
    293       2.2412      0.00000
    294       2.2679      0.00000
    295       2.6077      0.00000
    296       2.6077      0.00000
    297       2.9412      0.00000
    298       2.9412      0.00000
    299       3.0553      0.00000
    300       3.0656      0.00000
    301       3.0657      0.00000
    302       3.3713      0.00000
    303       3.3714      0.00000
    304       3.4594      0.00000
    305       3.4594      0.00000
    306       3.6282      0.00000
    307       3.6818      0.00000
    308       3.6858      0.00000
    309       3.7409      0.00000
    310       3.7433      0.00000
    311       3.7434      0.00000
    312       3.9783      0.00000
    313       3.9823      0.00000
    314       4.2131      0.00000
    315       4.2136      0.00000
    316       4.3233      0.00000
    317       4.3266      0.00000
    318       4.7519      0.00000
    319       4.7568      0.00000
    320       4.9668      0.00000
    321       4.9888      0.00000
    322       5.2078      0.00000
    323       5.2267      0.00000
    324       5.2647      0.00000

 k-point    12 :      -0.2000   -0.4000    0.0000
  band No.  band energies     occupation 
      1      -7.5786      2.00000
      2      -7.5785      2.00000
      3      -6.9466      2.00000
      4      -6.9131      2.00000
      5      -6.9130      2.00000
      6      -6.3396      2.00000
      7      -6.0363      2.00000
      8      -6.0362      2.00000
      9      -5.6868      2.00000
     10      -5.5289      2.00000
     11      -5.4875      2.00000
     12      -5.4787      2.00000
     13      -5.4037      2.00000
     14      -5.4037      2.00000
     15      -5.3005      2.00000
     16      -5.3004      2.00000
     17      -5.2426      2.00000
     18      -5.2426      2.00000
     19      -5.2253      2.00000
     20      -5.1643      2.00000
     21      -5.0902      2.00000
     22      -5.0845      2.00000
     23      -5.0754      2.00000
     24      -5.0754      2.00000
     25      -4.9550      2.00000
     26      -4.9549      2.00000
     27      -4.9119      2.00000
     28      -4.9119      2.00000
     29      -4.9009      2.00000
     30      -4.9009      2.00000
     31      -4.8749      2.00000
     32      -4.8749      2.00000
     33      -4.8604      2.00000
     34      -4.8604      2.00000
     35      -4.8454      2.00000
     36      -4.8004      2.00000
     37      -4.7914      2.00000
     38      -4.7913      2.00000
     39      -4.7098      2.00000
     40      -4.7098      2.00000
     41      -4.6582      2.00000
     42      -4.5960      2.00000
     43      -4.4831      2.00000
     44      -4.4792      2.00000
     45      -4.4792      2.00000
     46      -4.4754      2.00000
     47      -4.4577      2.00000
     48      -4.4577      2.00000
     49      -4.4364      2.00000
     50      -4.4114      2.00000
     51      -4.3053      2.00000
     52      -4.3053      2.00000
     53      -4.3031      2.00000
     54      -4.3030      2.00000
     55      -4.2582      2.00000
     56      -4.1904      2.00000
     57      -4.1904      2.00000
     58      -4.1841      2.00000
     59      -4.1841      2.00000
     60      -4.0028      2.00000
     61      -3.9123      2.00000
     62      -3.9095      2.00000
     63      -3.9095      2.00000
     64      -3.8269      2.00000
     65      -3.7599      2.00000
     66      -3.7466      2.00000
     67      -3.7466      2.00000
     68      -3.7379      2.00000
     69      -3.7378      2.00000
     70      -3.7008      2.00000
     71      -3.6824      2.00000
     72      -3.6707      2.00000
     73      -3.5825      2.00000
     74      -3.5825      2.00000
     75      -3.5140      2.00000
     76      -3.5081      2.00000
     77      -3.5006      2.00000
     78      -3.5006      2.00000
     79      -3.4070      2.00000
     80      -3.4069      2.00000
     81      -3.3916      2.00000
     82      -3.3916      2.00000
     83      -3.3682      2.00000
     84      -3.3455      2.00000
     85      -3.3455      2.00000
     86      -3.2614      2.00000
     87      -3.2613      2.00000
     88      -3.2015      2.00000
     89      -3.1964      2.00000
     90      -3.1487      2.00000
     91      -3.1420      2.00000
     92      -3.1359      2.00000
     93      -3.1359      2.00000
     94      -3.1271      2.00000
     95      -3.1271      2.00000
     96      -3.1190      2.00000
     97      -3.1189      2.00000
     98      -3.1145      2.00000
     99      -3.0636      2.00000
    100      -3.0636      2.00000
    101      -2.9685      2.00000
    102      -2.9684      2.00000
    103      -2.9643      2.00000
    104      -2.9556      2.00000
    105      -2.9556      2.00000
    106      -2.8822      2.00000
    107      -2.7851      2.00000
    108      -2.7851      2.00000
    109      -2.7832      2.00000
    110      -2.7716      2.00000
    111      -2.7716      2.00000
    112      -2.7328      2.00000
    113      -2.7023      2.00000
    114      -2.6721      2.00000
    115      -2.6557      2.00000
    116      -2.6557      2.00000
    117      -2.6165      2.00000
    118      -2.5368      2.00000
    119      -2.5367      2.00000
    120      -2.5299      2.00000
    121      -2.5265      2.00000
    122      -2.5265      2.00000
    123      -2.5205      2.00000
    124      -2.4820      2.00000
    125      -2.4810      2.00000
    126      -2.4810      2.00000
    127      -2.4349      2.00000
    128      -2.4348      2.00000
    129      -2.4162      2.00000
    130      -2.4071      2.00000
    131      -2.4071      2.00000
    132      -2.3071      2.00000
    133      -2.2483      2.00000
    134      -2.2294      2.00000
    135      -2.2294      2.00000
    136      -2.2071      2.00000
    137      -2.2071      2.00000
    138      -2.1931      2.00000
    139      -2.1627      2.00000
    140      -2.1627      2.00000
    141      -2.1444      2.00000
    142      -2.1443      2.00000
    143      -2.0685      2.00000
    144      -2.0685      2.00000
    145      -2.0458      2.00000
    146      -2.0458      2.00000
    147      -2.0137      2.00000
    148      -2.0137      2.00000
    149      -1.9936      2.00000
    150      -1.9365      2.00000
    151      -1.9364      2.00000
    152      -1.9317      2.00000
    153      -1.9316      2.00000
    154      -1.9020      2.00000
    155      -1.8910      2.00000
    156      -1.8757      2.00000
    157      -1.8757      2.00000
    158      -1.8673      2.00000
    159      -1.8673      2.00000
    160      -1.8526      2.00000
    161      -1.8339      2.00000
    162      -1.7935      2.00000
    163      -1.7934      2.00000
    164      -1.7120      2.00000
    165      -1.7100      2.00000
    166      -1.7099      2.00000
    167      -1.6636      2.00000
    168      -1.6636      2.00000
    169      -1.5468      2.00000
    170      -1.5076      2.00000
    171      -1.4952      2.00000
    172      -1.4952      2.00000
    173      -1.4680      2.00000
    174      -1.4680      2.00000
    175      -1.3525      2.00000
    176      -1.3334      2.00000
    177      -1.3334      2.00000
    178      -1.2991      2.00000
    179      -1.2667      2.00000
    180      -1.2561      2.00000
    181      -1.2561      2.00000
    182      -1.2545      2.00000
    183      -1.2545      2.00000
    184      -1.2342      2.00000
    185      -1.1841      2.00000
    186      -1.1490      2.00000
    187      -1.1489      2.00000
    188      -1.0901      2.00000
    189      -1.0901      2.00000
    190      -1.0897      2.00000
    191      -1.0897      2.00000
    192      -1.0708      2.00000
    193      -1.0629      2.00000
    194      -1.0618      2.00000
    195      -1.0212      2.00000
    196      -1.0212      2.00000
    197      -1.0128      2.00000
    198      -0.8955      2.00000
    199      -0.8955      2.00000
    200      -0.8834      2.00000
    201      -0.8834      2.00000
    202      -0.8412      2.00000
    203      -0.7517      2.00000
    204      -0.7221      2.00000
    205      -0.7221      2.00000
    206      -0.6605      2.00000
    207      -0.6031      2.00000
    208      -0.5943      2.00000
    209      -0.5943      2.00000
    210      -0.5370      2.00000
    211      -0.5370      2.00000
    212      -0.5157      2.00000
    213      -0.5157      2.00000
    214      -0.4996      2.00000
    215      -0.4570      2.00000
    216      -0.4569      2.00000
    217      -0.4280      2.00000
    218      -0.4116      2.00000
    219      -0.4116      2.00000
    220      -0.3994      2.00000
    221      -0.3994      2.00000
    222      -0.2444      2.00000
    223      -0.2380      2.00000
    224      -0.2379      2.00000
    225      -0.2375      2.00000
    226      -0.2363      2.00000
    227      -0.2363      2.00000
    228      -0.2094      2.00000
    229      -0.1733      2.00000
    230      -0.0751      2.00000
    231       0.0113      2.00000
    232       0.0113      2.00000
    233       0.0722      2.00000
    234       0.0723      2.00000
    235       0.1125      2.00000
    236       0.1126      2.00000
    237       0.1471      2.00000
    238       0.1906      2.00000
    239       0.2128      2.00000
    240       0.2638      2.00000
    241       0.2638      2.00000
    242       0.3464      2.00000
    243       0.3526      2.00000
    244       0.3526      2.00000
    245       0.3671      2.00000
    246       0.3839      2.00000
    247       0.3839      2.00000
    248       0.4567      1.99999
    249       0.4567      1.99998
    250       0.5321      1.99971
    251       0.5843      1.99610
    252       0.5985      1.99274
    253       0.6131      1.98684
    254       0.6225      1.98106
    255       0.6538      1.94270
    256       0.6538      1.94267
    257       0.6658      1.91686
    258       0.6658      1.91684
    259       0.7114      1.72267
    260       0.7115      1.72262
    261       0.7133      1.71137
    262       0.7134      1.71132
    263       0.7393      1.51169
    264       0.7393      1.51169
    265       0.7622      1.29065
    266       0.7897      0.98316
    267       0.8194      0.66153
    268       0.8194      0.66144
    269       0.8415      0.45246
    270       0.8630      0.29141
    271       0.9125      0.07900
    272       0.9126      0.07899
    273       0.9197      0.06313
    274       0.9197      0.06313
    275       0.9310      0.04363
    276       1.0514      0.00000
    277       1.0903      0.00000
    278       1.1022      0.00000
    279       1.1056      0.00000
    280       1.1056      0.00000
    281       1.1120      0.00000
    282       1.1120      0.00000
    283       1.1687      0.00000
    284       1.1990      0.00000
    285       1.3862      0.00000
    286       1.6775      0.00000
    287       1.6775      0.00000
    288       2.0660      0.00000
    289       2.0660      0.00000
    290       2.2174      0.00000
    291       2.2262      0.00000
    292       2.2412      0.00000
    293       2.2429      0.00000
    294       2.2662      0.00000
    295       2.6077      0.00000
    296       2.6077      0.00000
    297       2.9412      0.00000
    298       2.9412      0.00000
    299       3.0553      0.00000
    300       3.0656      0.00000
    301       3.0657      0.00000
    302       3.3714      0.00000
    303       3.3714      0.00000
    304       3.4594      0.00000
    305       3.4594      0.00000
    306       3.6281      0.00000
    307       3.6818      0.00000
    308       3.6858      0.00000
    309       3.7408      0.00000
    310       3.7433      0.00000
    311       3.7436      0.00000
    312       3.9781      0.00000
    313       3.9824      0.00000
    314       4.2131      0.00000
    315       4.2137      0.00000
    316       4.3235      0.00000
    317       4.3235      0.00000
    318       4.7519      0.00000
    319       4.7561      0.00000
    320       4.9652      0.00000
    321       5.0562      0.00000
    322       5.2211      0.00000
    323       5.2295      0.00000
    324       5.2552      0.00000

 k-point    13 :       0.4000    0.4000    0.0000
  band No.  band energies     occupation 
      1      -7.5786      2.00000
      2      -7.5785      2.00000
      3      -6.9466      2.00000
      4      -6.9131      2.00000
      5      -6.9130      2.00000
      6      -6.3396      2.00000
      7      -6.0363      2.00000
      8      -6.0362      2.00000
      9      -5.6868      2.00000
     10      -5.5289      2.00000
     11      -5.4875      2.00000
     12      -5.4787      2.00000
     13      -5.4037      2.00000
     14      -5.4037      2.00000
     15      -5.3005      2.00000
     16      -5.3004      2.00000
     17      -5.2426      2.00000
     18      -5.2426      2.00000
     19      -5.2253      2.00000
     20      -5.1643      2.00000
     21      -5.0902      2.00000
     22      -5.0845      2.00000
     23      -5.0754      2.00000
     24      -5.0754      2.00000
     25      -4.9550      2.00000
     26      -4.9549      2.00000
     27      -4.9119      2.00000
     28      -4.9119      2.00000
     29      -4.9009      2.00000
     30      -4.9009      2.00000
     31      -4.8749      2.00000
     32      -4.8749      2.00000
     33      -4.8604      2.00000
     34      -4.8604      2.00000
     35      -4.8454      2.00000
     36      -4.8004      2.00000
     37      -4.7914      2.00000
     38      -4.7913      2.00000
     39      -4.7098      2.00000
     40      -4.7098      2.00000
     41      -4.6582      2.00000
     42      -4.5959      2.00000
     43      -4.4831      2.00000
     44      -4.4792      2.00000
     45      -4.4792      2.00000
     46      -4.4754      2.00000
     47      -4.4577      2.00000
     48      -4.4577      2.00000
     49      -4.4364      2.00000
     50      -4.4114      2.00000
     51      -4.3053      2.00000
     52      -4.3053      2.00000
     53      -4.3031      2.00000
     54      -4.3030      2.00000
     55      -4.2582      2.00000
     56      -4.1904      2.00000
     57      -4.1904      2.00000
     58      -4.1841      2.00000
     59      -4.1841      2.00000
     60      -4.0028      2.00000
     61      -3.9123      2.00000
     62      -3.9095      2.00000
     63      -3.9095      2.00000
     64      -3.8269      2.00000
     65      -3.7599      2.00000
     66      -3.7466      2.00000
     67      -3.7466      2.00000
     68      -3.7379      2.00000
     69      -3.7378      2.00000
     70      -3.7008      2.00000
     71      -3.6824      2.00000
     72      -3.6707      2.00000
     73      -3.5825      2.00000
     74      -3.5825      2.00000
     75      -3.5140      2.00000
     76      -3.5081      2.00000
     77      -3.5006      2.00000
     78      -3.5006      2.00000
     79      -3.4069      2.00000
     80      -3.4069      2.00000
     81      -3.3916      2.00000
     82      -3.3916      2.00000
     83      -3.3682      2.00000
     84      -3.3455      2.00000
     85      -3.3455      2.00000
     86      -3.2613      2.00000
     87      -3.2613      2.00000
     88      -3.2015      2.00000
     89      -3.1964      2.00000
     90      -3.1488      2.00000
     91      -3.1420      2.00000
     92      -3.1359      2.00000
     93      -3.1359      2.00000
     94      -3.1271      2.00000
     95      -3.1271      2.00000
     96      -3.1189      2.00000
     97      -3.1189      2.00000
     98      -3.1145      2.00000
     99      -3.0636      2.00000
    100      -3.0636      2.00000
    101      -2.9685      2.00000
    102      -2.9684      2.00000
    103      -2.9643      2.00000
    104      -2.9556      2.00000
    105      -2.9556      2.00000
    106      -2.8822      2.00000
    107      -2.7851      2.00000
    108      -2.7851      2.00000
    109      -2.7832      2.00000
    110      -2.7716      2.00000
    111      -2.7716      2.00000
    112      -2.7328      2.00000
    113      -2.7022      2.00000
    114      -2.6721      2.00000
    115      -2.6557      2.00000
    116      -2.6557      2.00000
    117      -2.6165      2.00000
    118      -2.5368      2.00000
    119      -2.5367      2.00000
    120      -2.5299      2.00000
    121      -2.5265      2.00000
    122      -2.5265      2.00000
    123      -2.5205      2.00000
    124      -2.4820      2.00000
    125      -2.4810      2.00000
    126      -2.4810      2.00000
    127      -2.4349      2.00000
    128      -2.4348      2.00000
    129      -2.4162      2.00000
    130      -2.4071      2.00000
    131      -2.4071      2.00000
    132      -2.3071      2.00000
    133      -2.2483      2.00000
    134      -2.2294      2.00000
    135      -2.2294      2.00000
    136      -2.2071      2.00000
    137      -2.2071      2.00000
    138      -2.1931      2.00000
    139      -2.1627      2.00000
    140      -2.1627      2.00000
    141      -2.1444      2.00000
    142      -2.1443      2.00000
    143      -2.0685      2.00000
    144      -2.0685      2.00000
    145      -2.0458      2.00000
    146      -2.0458      2.00000
    147      -2.0137      2.00000
    148      -2.0137      2.00000
    149      -1.9937      2.00000
    150      -1.9365      2.00000
    151      -1.9364      2.00000
    152      -1.9316      2.00000
    153      -1.9316      2.00000
    154      -1.9020      2.00000
    155      -1.8910      2.00000
    156      -1.8757      2.00000
    157      -1.8757      2.00000
    158      -1.8673      2.00000
    159      -1.8673      2.00000
    160      -1.8526      2.00000
    161      -1.8340      2.00000
    162      -1.7935      2.00000
    163      -1.7934      2.00000
    164      -1.7120      2.00000
    165      -1.7100      2.00000
    166      -1.7099      2.00000
    167      -1.6636      2.00000
    168      -1.6636      2.00000
    169      -1.5468      2.00000
    170      -1.5076      2.00000
    171      -1.4952      2.00000
    172      -1.4952      2.00000
    173      -1.4680      2.00000
    174      -1.4680      2.00000
    175      -1.3525      2.00000
    176      -1.3334      2.00000
    177      -1.3334      2.00000
    178      -1.2991      2.00000
    179      -1.2667      2.00000
    180      -1.2561      2.00000
    181      -1.2561      2.00000
    182      -1.2545      2.00000
    183      -1.2545      2.00000
    184      -1.2342      2.00000
    185      -1.1841      2.00000
    186      -1.1489      2.00000
    187      -1.1489      2.00000
    188      -1.0901      2.00000
    189      -1.0901      2.00000
    190      -1.0897      2.00000
    191      -1.0897      2.00000
    192      -1.0709      2.00000
    193      -1.0629      2.00000
    194      -1.0618      2.00000
    195      -1.0212      2.00000
    196      -1.0212      2.00000
    197      -1.0128      2.00000
    198      -0.8955      2.00000
    199      -0.8955      2.00000
    200      -0.8834      2.00000
    201      -0.8834      2.00000
    202      -0.8412      2.00000
    203      -0.7517      2.00000
    204      -0.7221      2.00000
    205      -0.7221      2.00000
    206      -0.6605      2.00000
    207      -0.6031      2.00000
    208      -0.5943      2.00000
    209      -0.5943      2.00000
    210      -0.5370      2.00000
    211      -0.5370      2.00000
    212      -0.5157      2.00000
    213      -0.5157      2.00000
    214      -0.4996      2.00000
    215      -0.4570      2.00000
    216      -0.4569      2.00000
    217      -0.4280      2.00000
    218      -0.4116      2.00000
    219      -0.4116      2.00000
    220      -0.3994      2.00000
    221      -0.3994      2.00000
    222      -0.2444      2.00000
    223      -0.2380      2.00000
    224      -0.2379      2.00000
    225      -0.2375      2.00000
    226      -0.2364      2.00000
    227      -0.2363      2.00000
    228      -0.2094      2.00000
    229      -0.1733      2.00000
    230      -0.0751      2.00000
    231       0.0113      2.00000
    232       0.0114      2.00000
    233       0.0723      2.00000
    234       0.0723      2.00000
    235       0.1125      2.00000
    236       0.1125      2.00000
    237       0.1471      2.00000
    238       0.1906      2.00000
    239       0.2128      2.00000
    240       0.2638      2.00000
    241       0.2638      2.00000
    242       0.3464      2.00000
    243       0.3526      2.00000
    244       0.3526      2.00000
    245       0.3671      2.00000
    246       0.3839      2.00000
    247       0.3839      2.00000
    248       0.4567      1.99999
    249       0.4567      1.99999
    250       0.5321      1.99971
    251       0.5843      1.99610
    252       0.5985      1.99274
    253       0.6131      1.98684
    254       0.6225      1.98106
    255       0.6538      1.94269
    256       0.6538      1.94269
    257       0.6658      1.91685
    258       0.6658      1.91685
    259       0.7114      1.72268
    260       0.7115      1.72262
    261       0.7133      1.71135
    262       0.7133      1.71133
    263       0.7393      1.51169
    264       0.7393      1.51169
    265       0.7622      1.29065
    266       0.7897      0.98316
    267       0.8194      0.66149
    268       0.8194      0.66147
    269       0.8415      0.45246
    270       0.8630      0.29141
    271       0.9126      0.07899
    272       0.9126      0.07899
    273       0.9197      0.06313
    274       0.9197      0.06312
    275       0.9310      0.04363
    276       1.0514      0.00000
    277       1.0903      0.00000
    278       1.1022      0.00000
    279       1.1056      0.00000
    280       1.1056      0.00000
    281       1.1120      0.00000
    282       1.1120      0.00000
    283       1.1687      0.00000
    284       1.1990      0.00000
    285       1.3862      0.00000
    286       1.6775      0.00000
    287       1.6775      0.00000
    288       2.0660      0.00000
    289       2.0660      0.00000
    290       2.2174      0.00000
    291       2.2262      0.00000
    292       2.2411      0.00000
    293       2.2412      0.00000
    294       2.2679      0.00000
    295       2.6077      0.00000
    296       2.6077      0.00000
    297       2.9412      0.00000
    298       2.9412      0.00000
    299       3.0553      0.00000
    300       3.0656      0.00000
    301       3.0656      0.00000
    302       3.3713      0.00000
    303       3.3714      0.00000
    304       3.4594      0.00000
    305       3.4594      0.00000
    306       3.6282      0.00000
    307       3.6818      0.00000
    308       3.6857      0.00000
    309       3.7409      0.00000
    310       3.7433      0.00000
    311       3.7433      0.00000
    312       3.9782      0.00000
    313       3.9823      0.00000
    314       4.2131      0.00000
    315       4.2133      0.00000
    316       4.3235      0.00000
    317       4.3267      0.00000
    318       4.7520      0.00000
    319       4.7789      0.00000
    320       4.9662      0.00000
    321       5.0118      0.00000
    322       5.2080      0.00000
    323       5.2430      0.00000
    324       5.2431      0.00000


--------------------------------------------------------------------------------------------------------


 soft charge-density along one line, spin component           1
         0         1         2         3         4         5         6         7         8         9
 total charge-density along one line

 pseudopotential strength for first ion, spin component:           1
 -6.333  -0.000  -0.000   0.016  -0.000  -6.437  -0.000  -0.000
 -0.000  -6.321  -0.000   0.000   0.016  -0.000  -6.426  -0.000
 -0.000  -0.000  -6.336  -0.000   0.000  -0.000  -0.000  -6.441
  0.016   0.000  -0.000  -6.321  -0.000   0.016   0.000  -0.000
 -0.000   0.016   0.000  -0.000  -6.333  -0.000   0.016   0.000
 -6.437  -0.000  -0.000   0.016  -0.000  -6.526  -0.000  -0.000
 -0.000  -6.426  -0.000   0.000   0.016  -0.000  -6.515  -0.000
 -0.000  -0.000  -6.441  -0.000   0.000  -0.000  -0.000  -6.529
  0.016   0.000  -0.000  -6.426  -0.000   0.015   0.000  -0.000
 -0.000   0.016   0.000  -0.000  -6.437  -0.000   0.015   0.000
 -0.000   0.000  -0.001   0.000   0.000  -0.000   0.000  -0.001
 -0.000   0.000  -0.002   0.000   0.000  -0.000   0.000  -0.002
  0.000   0.000  -0.000   0.000  -0.000   0.000   0.000  -0.000
  0.000   0.000   0.000   0.000  -0.000   0.000   0.000   0.000
 -0.000   0.000  -0.000   0.000   0.000  -0.000   0.000  -0.000
  0.000   0.001  -0.000   0.000  -0.000   0.000   0.001  -0.000
  0.000   0.000   0.000   0.000  -0.000   0.000   0.000   0.000
 -0.000   0.000  -0.000   0.001   0.000  -0.000   0.000  -0.000
 total augmentation occupancy for first ion, spin component:           1
  4.330  -0.000  -0.000   0.541   0.000  -2.900   0.000  -0.000  -0.186  -0.000   0.000  -0.000  -0.000   0.000   0.003   0.000
 -0.000   4.519  -0.000   0.000   0.541   0.000  -2.901  -0.000  -0.000  -0.187  -0.000   0.000  -0.003   0.000   0.000   0.000
 -0.000  -0.000   4.236   0.000  -0.000  -0.000  -0.000  -2.970  -0.000   0.000   0.015  -0.004   0.000   0.021   0.000  -0.000
  0.541   0.000   0.000   4.519   0.000  -0.187  -0.000  -0.000  -2.901  -0.000   0.000  -0.000  -0.000  -0.000  -0.003   0.000
  0.000   0.541  -0.000   0.000   4.330  -0.000  -0.186   0.000  -0.000  -2.900  -0.000  -0.000   0.003  -0.000  -0.000  -0.000
 -2.900   0.000  -0.000  -0.187  -0.000   3.197  -0.000   0.000  -0.070   0.000  -0.000  -0.000   0.000  -0.000  -0.002  -0.000
  0.000  -2.901  -0.000  -0.000  -0.186  -0.000   3.057   0.000   0.000  -0.070   0.000  -0.000   0.002  -0.000   0.000  -0.000
 -0.000  -0.000  -2.970  -0.000   0.000   0.000   0.000   3.388   0.000  -0.000  -0.009   0.001  -0.000  -0.014  -0.000   0.000
 -0.186  -0.000  -0.000  -2.901  -0.000  -0.070   0.000   0.000   3.057   0.000  -0.000   0.000   0.000   0.000   0.002  -0.000
 -0.000  -0.187   0.000  -0.000  -2.900   0.000  -0.070  -0.000   0.000   3.197   0.000  -0.000  -0.002   0.000   0.000   0.000
  0.000  -0.000   0.015   0.000  -0.000  -0.000   0.000  -0.009  -0.000   0.000   2.544  -0.596  -0.000   0.001  -0.000   0.000
 -0.000   0.000  -0.004  -0.000  -0.000  -0.000  -0.000   0.001   0.000  -0.000  -0.596   0.154   0.000  -0.000   0.000  -0.000
 -0.000  -0.003   0.000  -0.000   0.003   0.000   0.002  -0.000   0.000  -0.002  -0.000   0.000   0.285  -0.000  -0.000  -0.018
  0.000   0.000   0.021  -0.000  -0.000  -0.000  -0.000  -0.014   0.000   0.000   0.001  -0.000  -0.000   0.286  -0.000   0.000
  0.003   0.000   0.000  -0.003  -0.000  -0.002   0.000  -0.000   0.002   0.000  -0.000   0.000  -0.000  -0.000   0.285   0.000
  0.000   0.000  -0.000   0.000  -0.000  -0.000  -0.000   0.000  -0.000   0.000   0.000  -0.000  -0.018   0.000   0.000   0.001
 -0.000   0.000  -0.000   0.000   0.000   0.000   0.000   0.000  -0.000  -0.000   0.000   0.000  -0.000  -0.018  -0.000  -0.000
 -0.000   0.000  -0.000   0.000   0.000   0.000  -0.000   0.000  -0.000  -0.000   0.000  -0.000   0.000   0.000  -0.018  -0.000


------------------------ aborting loop because EDIFF is reached ----------------------------------------


    FORLOC:  cpu time      0.0152: real time      0.0152
    FORNL :  cpu time      1.5086: real time      1.5282
    STRESS:  cpu time      4.6391: real time      4.7624
    FORCOR:  cpu time      0.0709: real time      0.0717
    OFIELD:  cpu time      0.0008: real time      0.0008

 ---------------------------------------------------------------------------------------------

         DFTD3 V3.0 Rev 1        
 DF rpbe      
 parameters
 rs18     =    1.0000
 alpha6   =   14.0000
 alpha8   =   16.0000
 k1-k3    =   16.0000    1.3333   -4.0000
 Edisp (eV)  -45.32571

 E6    (eV) :   -31.4245
 E8    (eV) :   -13.9012
 % E8        : 30.67
    FORVDW:  cpu time      0.2044: real time      0.2062

  FORCE on cell =-STRESS in cart. coord.  units (eV):
  Direction    XX          YY          ZZ          XY          YZ          ZX
  --------------------------------------------------------------------------------------
  Alpha Z  1293.09677  1293.09677  1293.09677
  Ewald  434015.11280434015.11280************     0.00000     0.00000     0.00000
  Hartree443150.61030443150.60996************    -0.00033    -0.00002     0.00003
  E(xc)   -2389.67092 -2389.67274 -2405.41634    -0.00157    -0.00001     0.00001
  Local  ************************894437.72045    -0.01109    -0.00002     0.00005
  n-local   223.50924   223.51024   209.09707     0.00080    -0.00004    -0.00001
  augment  2826.21378  2826.21839  2887.47821     0.00400     0.00001    -0.00007
  Kinetic  7797.24400  7797.24489  7959.27504     0.00101     0.00012    -0.00019
  Fock        0.00000     0.00000     0.00000     0.00000     0.00000     0.00000
  vdW       -34.38815   -34.38815   -27.58826    -0.00000     0.00000    -0.00000
  -------------------------------------------------------------------------------------
  Total     -70.57720   -70.58584   -24.86714    -0.00717     0.00005    -0.00017
  in kB     -52.75075   -52.75720   -18.58617    -0.00536     0.00004    -0.00013
  external pressure =      -41.36 kB  Pullay stress =        0.00 kB


 VOLUME and BASIS-vectors are now :
 -----------------------------------------------------------------------------
  energy-cutoff  :      400.00
  volume of cell :     2143.61
      direct lattice vectors                 reciprocal lattice vectors
     8.463768833  0.000000000  0.000000000     0.118150675  0.068214324 -0.000000000
    -4.231884417  7.329838821  0.000000000     0.000000000  0.136428648  0.000000000
     0.000000000  0.000000000 34.553191570    -0.000000000 -0.000000000  0.028940887

  length of vectors
     8.463768833  8.463768833 34.553191570     0.136428648  0.136428648  0.028940887


 FORCES acting on ions:
    Electron-Ion                     Ewald-Force                    Non-Local-Force
 -----------------------------------------------------------------------------------------------
   -.101E-03 -.555E-03 0.788E+03   0.145E-11 -.327E-10 -.788E+03   0.531E-04 0.330E-03 -.638E-01
   0.331E-04 0.873E-04 -.236E+04   -.227E-10 0.129E-10 0.236E+04   -.253E-04 0.509E-04 0.277E+00
   0.152E-03 0.156E-03 0.788E+03   -.290E-10 -.151E-10 -.788E+03   -.946E-04 -.365E-04 -.637E-01
   0.118E-03 0.111E-03 0.393E+04   0.178E-10 0.367E-10 -.393E+04   -.593E-04 -.115E-03 -.123E+01
   0.202E-03 0.302E-03 0.236E+04   -.205E-10 -.104E-10 -.236E+04   -.851E-04 -.222E-03 -.269E+00
   0.752E-04 -.363E-04 -.393E+04   -.264E-10 -.160E-10 0.393E+04   -.537E-04 -.388E-04 0.123E+01
   0.423E-03 0.252E-03 -.788E+03   0.196E-10 0.432E-10 0.788E+03   -.297E-03 -.219E-03 0.693E-01
   0.143E-03 0.372E-03 -.236E+04   -.212E-10 -.105E-10 0.236E+04   -.119E-03 -.268E-03 0.277E+00
   0.162E-03 -.264E-03 0.788E+03   0.305E-10 -.176E-10 -.788E+03   -.111E-03 0.159E-03 -.638E-01
   0.745E-04 -.828E-04 0.393E+04   -.163E-11 0.147E-11 -.393E+04   0.444E-06 0.155E-03 -.123E+01
   -.882E-04 -.121E-03 0.236E+04   0.298E-10 -.170E-10 -.236E+04   0.507E-04 0.178E-03 -.269E+00
   0.454E-04 -.123E-03 -.393E+04   0.251E-10 -.152E-10 0.393E+04   -.866E-04 0.145E-03 0.123E+01
   0.164E-03 -.473E-03 -.788E+03   -.204E-13 -.977E-13 0.788E+03   -.118E-03 0.316E-03 0.693E-01
   -.131E-03 -.272E-03 -.236E+04   0.301E-10 -.178E-10 0.236E+04   0.695E-04 0.775E-04 0.277E+00
   -.510E-04 0.421E-03 0.788E+03   0.280E-10 0.481E-10 -.788E+03   0.469E-04 -.318E-03 -.637E-01
   -.561E-04 -.694E-04 0.393E+04   -.138E-12 -.217E-10 -.393E+04   0.576E-04 -.286E-04 -.123E+01
   -.186E-04 -.360E-03 0.236E+04   0.272E-10 0.380E-10 -.236E+04   0.157E-04 0.153E-03 -.269E+00
   -.632E-04 0.152E-03 -.393E+04   0.224E-10 0.412E-10 0.393E+04   0.293E-04 -.104E-03 0.123E+01
   -.998E-04 0.126E-03 -.788E+03   0.146E-11 -.233E-10 0.788E+03   0.942E-04 -.344E-04 0.693E-01
   0.185E-04 -.223E-03 -.236E+04   0.274E-10 0.386E-10 0.236E+04   -.329E-04 0.268E-03 0.277E+00
   0.285E-03 0.908E-04 0.788E+03   0.292E-10 0.154E-10 -.788E+03   -.175E-03 0.468E-05 -.638E-01
   -.291E-04 0.150E-03 0.393E+04   -.303E-11 0.262E-10 -.393E+04   0.211E-04 -.910E-04 -.123E+01
   -.286E-03 0.250E-03 0.236E+04   0.285E-10 0.147E-10 -.236E+04   0.158E-03 -.204E-03 -.269E+00
   0.224E-04 -.301E-04 -.393E+04   0.236E-10 0.961E-11 0.393E+04   -.499E-04 -.946E-04 0.123E+01
   0.108E-03 0.297E-03 -.788E+03   0.222E-10 -.130E-10 0.788E+03   -.823E-04 -.122E-03 0.693E-01
   0.476E-04 0.107E-03 -.393E+04   -.277E-10 0.154E-10 0.393E+04   0.147E-05 -.134E-04 0.123E+01
   -.391E-05 -.343E-04 0.236E+04   -.218E-10 0.129E-10 -.236E+04   0.164E-04 -.138E-04 -.269E+00
   0.124E-04 -.642E-04 0.393E+04   0.206E-10 -.112E-10 -.393E+04   -.292E-04 -.195E-04 -.123E+01
   -.529E-04 -.399E-04 0.393E+04   -.238E-10 -.961E-11 -.393E+04   -.106E-04 0.105E-03 -.123E+01
   -.184E-03 0.695E-04 0.236E+04   0.177E-11 -.314E-10 -.236E+04   0.817E-04 0.581E-04 -.269E+00
   -.157E-04 -.129E-03 -.393E+04   0.299E-11 -.261E-10 0.393E+04   0.211E-04 0.157E-03 0.123E+01
   -.317E-03 -.410E-03 -.788E+03   -.292E-10 -.153E-10 0.788E+03   0.208E-03 0.272E-03 0.693E-01
   -.161E-03 -.138E-03 -.236E+04   0.104E-11 -.330E-10 0.236E+04   0.139E-03 -.808E-05 0.277E+00
   -.218E-03 0.648E-04 0.788E+03   -.136E-11 0.328E-10 -.788E+03   0.132E-03 -.958E-04 -.637E-01
   0.439E-04 -.156E-03 0.393E+04   -.224E-10 -.330E-10 -.393E+04   -.429E-04 -.722E-05 -.123E+01
   0.118E-04 -.259E-03 0.236E+04   -.110E-11 0.234E-10 -.236E+04   -.412E-05 0.799E-04 -.269E+00
   0.195E-04 0.712E-04 -.393E+04   0.213E-12 0.299E-10 0.393E+04   -.215E-04 0.951E-05 0.123E+01
   -.174E-04 -.127E-03 -.788E+03   -.279E-10 -.386E-10 0.788E+03   0.695E-05 0.164E-03 0.693E-01
   -.444E-04 -.805E-04 -.236E+04   -.194E-11 0.233E-10 0.236E+04   0.406E-04 0.196E-03 0.277E+00
   -.134E-03 0.301E-03 -.788E+03   -.142E-11 0.328E-10 0.788E+03   0.703E-04 -.250E-03 0.693E-01
   -.445E-03 0.626E-04 0.788E+03   -.308E-13 0.115E-12 -.788E+03   0.285E-03 0.193E-04 -.637E-01
   0.835E-04 0.145E-03 0.236E+04   0.291E-12 0.108E-12 -.236E+04   -.553E-04 -.150E-03 -.269E+00
   -.985E-04 0.496E-05 -.393E+04   0.155E-11 -.151E-11 0.393E+04   0.103E-03 -.963E-04 0.123E+01
   -.280E-03 0.166E-03 -.788E+03   -.305E-10 0.176E-10 0.788E+03   0.210E-03 -.177E-03 0.693E-01
   0.116E-03 0.171E-03 -.236E+04   -.426E-12 0.475E-13 0.236E+04   -.557E-04 -.133E-03 0.277E+00
   -.591E-04 -.149E-03 0.788E+03   -.280E-10 -.480E-10 -.788E+03   0.497E-04 0.652E-04 -.637E-01
   -.202E-04 0.297E-04 0.393E+04   0.192E-10 0.120E-10 -.393E+04   0.203E-05 0.682E-04 -.123E+01
   0.286E-03 0.905E-05 0.236E+04   -.191E-10 -.419E-10 -.236E+04   -.143E-03 0.123E-03 -.269E+00
   -.386E-04 -.360E-04 -.393E+04   -.250E-10 -.408E-10 0.393E+04   0.804E-04 0.740E-04 0.123E+01
   0.160E-03 -.172E-03 -.788E+03   0.208E-10 0.103E-10 0.788E+03   -.987E-04 0.915E-04 0.692E-01
   0.286E-03 -.195E-03 -.236E+04   -.200E-10 -.434E-10 0.236E+04   -.203E-03 0.261E-04 0.277E+00
   0.267E-03 0.229E-03 0.788E+03   -.305E-10 0.177E-10 -.788E+03   -.170E-03 -.188E-03 -.637E-01
   -.850E-04 0.144E-03 0.393E+04   -.251E-10 0.151E-10 -.393E+04   0.324E-04 -.124E-03 -.123E+01
   -.253E-03 0.275E-03 -.236E+04   0.287E-10 0.151E-10 0.236E+04   0.169E-03 -.218E-03 0.277E+00
 -----------------------------------------------------------------------------------------------
   0.994E-05 0.169E-04 -.290E+00   -.262E-12 0.220E-12 0.318E-11   0.198E-04 -.453E-04 0.143E+00


 POSITION                                       TOTAL-FORCE (eV/Angst)
 -----------------------------------------------------------------------------------
     -1.41063      2.44328     16.12482        -0.000049     -0.000224      0.029104
      2.82126      3.25771     20.73191         0.000007      0.000139     -0.384914
      2.82126      0.00000     16.12482         0.000057      0.000120      0.029219
     -0.00000      6.51541     11.51773         0.000058     -0.000004     -0.006394
      1.41063      5.70099     13.82128         0.000116      0.000080      0.382924
      2.82126      0.00000     23.03546         0.000021     -0.000075      0.007510
     -0.00000      6.51541     18.42837         0.000126      0.000034     -0.028190
      1.41063      5.70099     20.73191         0.000023      0.000105     -0.384990
      4.23188      2.44328     16.12482         0.000051     -0.000105      0.029092
      5.64251      1.62885     11.51773         0.000075      0.000073     -0.006279
      7.05314      0.81443     13.82128        -0.000038      0.000058      0.382962
      4.23188      2.44328     23.03546        -0.000042      0.000022      0.007558
      5.64251      1.62885     18.42837         0.000045     -0.000157     -0.028340
      7.05314      0.81443     20.73191        -0.000062     -0.000194     -0.385041
      2.82126      4.88656     16.12482        -0.000004      0.000104      0.029177
      4.23188      4.07213     11.51773         0.000001     -0.000098     -0.006351
      5.64251      3.25771     13.82128        -0.000003     -0.000206      0.382858
      2.82126      4.88656     23.03546        -0.000035      0.000048      0.007477
      4.23188      4.07213     18.42837        -0.000007      0.000092     -0.028246
      5.64251      3.25771     20.73191        -0.000015      0.000045     -0.384977
      5.64251      0.00000     16.12482         0.000109      0.000096      0.029191
      2.82126      6.51541     11.51773        -0.000008      0.000060     -0.006304
      4.23188      5.70099     13.82128        -0.000128      0.000047      0.382919
      5.64251      0.00000     23.03546        -0.000029     -0.000124      0.007439
      1.41063      4.07213     18.42837         0.000026      0.000175     -0.028225
      0.00000      4.88656     23.03546         0.000048      0.000094      0.007489
      2.82126      3.25771     13.82128         0.000012     -0.000047      0.382888
      1.41063      4.07213     11.51773        -0.000018     -0.000084     -0.006359
      0.00000      1.62885     11.51773        -0.000063      0.000066     -0.006318
      1.41063      0.81443     13.82128        -0.000103      0.000129      0.382931
     -1.41063      2.44328     23.03546         0.000005      0.000029      0.007547
      0.00000      1.62885     18.42837        -0.000109     -0.000138     -0.028328
      1.41063      0.81443     20.73191        -0.000022     -0.000145     -0.384947
     -2.82126      4.88656     16.12482        -0.000086     -0.000031      0.029233
     -1.41063      4.07213     11.51773         0.000001     -0.000163     -0.006394
     -0.00000      3.25771     13.82128         0.000007     -0.000178      0.382833
     -2.82126      4.88656     23.03546        -0.000002      0.000081      0.007513
     -1.41063      4.07213     18.42837        -0.000011      0.000036     -0.028212
     -0.00000      3.25771     20.73191        -0.000004      0.000116     -0.384953
      2.82126      6.51541     18.42837        -0.000064      0.000052     -0.028236
      0.00000      0.00000     16.12482        -0.000161      0.000082      0.029183
     -1.41063      5.70099     13.82128         0.000027     -0.000005      0.382860
      0.00000      0.00000     23.03546         0.000004     -0.000091      0.007471
     -2.82126      6.51541     18.42837        -0.000071     -0.000011     -0.028215
     -1.41063      5.70099     20.73191         0.000060      0.000039     -0.384952
      1.41063      2.44328     16.12482        -0.000010     -0.000083      0.029076
      2.82126      1.62885     11.51773        -0.000019      0.000099     -0.006348
      4.23188      0.81443     13.82128         0.000142      0.000133      0.382956
      1.41063      2.44328     23.03546         0.000041      0.000039      0.007563
      2.82126      1.62885     18.42837         0.000061     -0.000080     -0.028340
      4.23188      0.81443     20.73191         0.000082     -0.000169     -0.384976
      0.00000      4.88656     16.12482         0.000096      0.000041      0.029240
     -2.82126      6.51541     11.51773        -0.000053      0.000021     -0.006406
      4.23188      5.70099     20.73191        -0.000085      0.000057     -0.384979
 -----------------------------------------------------------------------------------
    total drift:                                0.000030     -0.000028     -0.146979


--------------------------------------------------------------------------------------------------------



  FREE ENERGIE OF THE ION-ELECTRON SYSTEM (eV)
  ---------------------------------------------------
  free  energy   TOTEN  =      -330.58665463 eV

  energy  without entropy=     -330.05974313  energy(sigma->0) =     -330.32319888



--------------------------------------------------------------------------------------------------------


    POTLOK:  cpu time      0.3053: real time      0.3078


--------------------------------------------------------------------------------------------------------




--------------------------------------------------------------------------------------------------------


  
 reached required accuracy - stopping structural energy minimisation
     LOOP+:  cpu time    514.6809: real time    521.2090
 vacuum level on the upper side and lower side of the slab         6.084         6.091
    4ORBIT:  cpu time      0.0000: real time      0.0000

 total amount of memory used by VASP MPI-rank0   306182. kBytes
=======================================================================

   base      :      30000. kBytes
   nonlr-proj:       3347. kBytes
   fftplans  :      13562. kBytes
   grid      :       5279. kBytes
   one-center:         62. kBytes
   wavefun   :     253932. kBytes

  
  
 General timing and accounting informations for this job:
 ========================================================
  
                  Total CPU time used (sec):      550.518
                            User time (sec):      541.726
                          System time (sec):        8.792
                         Elapsed time (sec):      564.868
  
                   Maximum memory used (kb):      531340.
                   Average memory used (kb):          N/A
  
                          Minor page faults:       358141
                          Major page faults:           14
                 Voluntary context switches:        17683
