Cu Pt                                   
   1.0000000000000000     
    11.1887137964146977    0.0000000000000000    0.0000000000000007
    -5.5943568982073524    9.6897103833685563    0.0000000000000007
     0.0000000000000000    0.0000000000000000   41.1099595188816593
  Cu              Pt            
    12    84
Selective dynamics
Direct
  0.3333333333333357  0.1666666666666643  0.3585544345969893   F   F   F
  0.8333333333333357  0.1666666666666643  0.3585544345969893   F   F   F
  0.8333333333333357  0.6666666666666643  0.3585544345969893   F   F   F
  0.1666666666666643  0.8333333333333357  0.5807766568192108   F   F   F
  0.0000000000000000  0.5000000000000000  0.4696655457081036   F   F   F
  0.3333333333333357  0.6666666666666643  0.3585544345969893   F   F   F
  0.0000000000000000  0.0000000000000000  0.4696655457081036   F   F   F
  0.6666666666666643  0.8333333333333357  0.5807766568192108   F   F   F
  0.5000000000000000  0.0000000000000000  0.4696655457081036   F   F   F
  0.6666666666666643  0.3333333333333357  0.5807766568192108   F   F   F
  0.5000000000000000  0.5000000000000000  0.4696655457081036   F   F   F
  0.1666666666666643  0.3333333333333357  0.5807766568192108   F   F   F
  0.9166666666666643  0.0833333333333357  0.5807766568192108   F   F   F
  0.7500000000000000  0.2500000000000000  0.4696655457081036   F   F   F
  0.5833333333333357  0.1666666666666643  0.3585544345969893   F   F   F
  0.9166666666666643  0.3333333333333357  0.5807766568192108   F   F   F
  0.7500000000000000  0.5000000000000000  0.4696655457081036   F   F   F
  0.8333333333333357  0.4166666666666643  0.3585544345969893   F   F   F
  0.6666666666666643  0.0833333333333357  0.5807766568192108   F   F   F
  0.0000000000000000  0.2500000000000000  0.4696655457081036   F   F   F
  0.0021225458600922  0.2510318080021731  0.6358705159785952   T   T   T
  0.8333333333333357  0.4166666666666643  0.5252211012636536   F   F   F
  0.6666666666666643  0.0833333333333357  0.4141099901525465   F   F   F
  0.7489172464037697  0.4978882455109451  0.6358699932826010   T   T   T
  0.5833333333333357  0.1666666666666643  0.5252211012636536   F   F   F
  0.9166666666666643  0.3333333333333357  0.4141099901525465   F   F   F
  0.8333333333333357  0.1666666666666643  0.5252211012636536   F   F   F
  0.6666666666666643  0.3333333333333357  0.4141099901525465   F   F   F
  0.5833333333333357  0.4166666666666643  0.3585544345969893   F   F   F
  0.9166666666666643  0.0833333333333357  0.4141099901525465   F   F   F
  0.7500000000000000  0.0000000000000000  0.4696655457081036   F   F   F
  0.7489867989325762  0.2510838031688135  0.6358698773078825   T   T   T
  0.8333333333333357  0.9166666666666643  0.3585544345969893   F   F   F
  0.6666666666666643  0.5833333333333357  0.5807766568192108   F   F   F
  0.0000000000000000  0.7500000000000000  0.4696655457081036   F   F   F
  0.0021043073575223  0.7510163525151600  0.6358710696331191   T   T   T
  0.8333333333333357  0.9166666666666643  0.5252211012636536   F   F   F
  0.6666666666666643  0.5833333333333357  0.4141099901525465   F   F   F
  0.7489239627408754  0.9978939868436462  0.6358689067571371   T   T   T
  0.5833333333333357  0.6666666666666643  0.5252211012636536   F   F   F
  0.9166666666666643  0.8333333333333357  0.4141099901525465   F   F   F
  0.8333333333333357  0.6666666666666643  0.5252211012636536   F   F   F
  0.6666666666666643  0.8333333333333357  0.4141099901525465   F   F   F
  0.0000030795388886  0.0000270164050931  0.6366334464123249   T   T   T
  0.5833333333333357  0.6666666666666643  0.3585544345969893   F   F   F
  0.7500000000000000  0.7500000000000000  0.4696655457081036   F   F   F
  0.9166666666666643  0.5833333333333357  0.5807766568192108   F   F   F
  0.5833333333333357  0.9166666666666643  0.3585544345969893   F   F   F
  0.9166666666666643  0.5833333333333357  0.4141099901525465   F   F   F
  0.9166666666666643  0.8333333333333357  0.5807766568192108   F   F   F
  0.5833333333333357  0.4166666666666643  0.5252211012636536   F   F   F
  0.2489796609970891  0.7510693670337935  0.6358728607302225   T   T   T
  0.5833333333333357  0.9166666666666643  0.5252211012636536   F   F   F
  0.0833333333333357  0.4166666666666643  0.3585544345969893   F   F   F
  0.4166666666666643  0.0833333333333357  0.5807766568192108   F   F   F
  0.2500000000000000  0.2500000000000000  0.4696655457081036   F   F   F
  0.0833333333333357  0.1666666666666643  0.3585544345969893   F   F   F
  0.4166666666666643  0.3333333333333357  0.5807766568192108   F   F   F
  0.2500000000000000  0.5000000000000000  0.4696655457081036   F   F   F
  0.3333333333333357  0.4166666666666643  0.3585544345969893   F   F   F
  0.1666666666666643  0.0833333333333357  0.5807766568192108   F   F   F
  0.4166666666666643  0.0833333333333357  0.4141099901525465   F   F   F
  0.5000000000000000  0.2500000000000000  0.4696655457081036   F   F   F
  0.3333333333333357  0.4166666666666643  0.5252211012636536   F   F   F
  0.1666666666666643  0.0833333333333357  0.4141099901525465   F   F   F
  0.2489082515548056  0.4978747694890368  0.6358699153696591   T   T   T
  0.0833333333333357  0.1666666666666643  0.5252211012636536   F   F   F
  0.4166666666666643  0.3333333333333357  0.4141099901525465   F   F   F
  0.3333333333333357  0.1666666666666643  0.5252211012636536   F   F   F
  0.1666666666666643  0.3333333333333357  0.4141099901525465   F   F   F
  0.4999864902175211  0.5000085287549534  0.6366310844124328   T   T   T
  0.5021087620890878  0.2510295370866552  0.6358682638351523   T   T   T
  0.0833333333333357  0.4166666666666643  0.5252211012636536   F   F   F
  0.2489570573488402  0.2510920587010719  0.6358695113976321   T   T   T
  0.5000088141436924  0.9999938666340981  0.6366326885219694   T   T   T
  0.0833333333333357  0.9166666666666643  0.5252211012636536   F   F   F
  0.4166666666666643  0.5833333333333357  0.4141099901525465   F   F   F
  0.0833333333333357  0.9166666666666643  0.3585544345969893   F   F   F
  0.4166666666666643  0.5833333333333357  0.5807766568192108   F   F   F
  0.2500000000000000  0.7500000000000000  0.4696655457081036   F   F   F
  0.0833333333333357  0.6666666666666643  0.3585544345969893   F   F   F
  0.4166666666666643  0.8333333333333357  0.5807766568192108   F   F   F
  0.2500000000000000  0.0000000000000000  0.4696655457081036   F   F   F
  0.3333333333333357  0.9166666666666643  0.3585544345969893   F   F   F
  0.1666666666666643  0.5833333333333357  0.5807766568192108   F   F   F
  0.5000000000000000  0.7500000000000000  0.4696655457081036   F   F   F
  0.5021129127622924  0.7510173067804610  0.6358699496825501   T   T   T
  0.3333333333333357  0.9166666666666643  0.5252211012636536   F   F   F
  0.1666666666666643  0.5833333333333357  0.4141099901525465   F   F   F
  0.2489176255591396  0.9979042979099719  0.6358710657134817   T   T   T
  0.0833333333333357  0.6666666666666643  0.5252211012636536   F   F   F
  0.4166666666666643  0.8333333333333357  0.4141099901525465   F   F   F
  0.3333333333333357  0.6666666666666643  0.5252211012636536   F   F   F
  0.1666666666666643  0.8333333333333357  0.4141099901525465   F   F   F
  0.0000061579350324  0.4999830183094123  0.6366340307050887   T   T   T
  0.7489543281746013  0.7510836459054991  0.6358700530072081   T   T   T

  0.00000000E+00  0.00000000E+00  0.00000000E+00
  0.00000000E+00  0.00000000E+00  0.00000000E+00
  0.00000000E+00  0.00000000E+00  0.00000000E+00
  0.00000000E+00  0.00000000E+00  0.00000000E+00
  0.00000000E+00  0.00000000E+00  0.00000000E+00
  0.00000000E+00  0.00000000E+00  0.00000000E+00
  0.00000000E+00  0.00000000E+00  0.00000000E+00
  0.00000000E+00  0.00000000E+00  0.00000000E+00
  0.00000000E+00  0.00000000E+00  0.00000000E+00
  0.00000000E+00  0.00000000E+00  0.00000000E+00
  0.00000000E+00  0.00000000E+00  0.00000000E+00
  0.00000000E+00  0.00000000E+00  0.00000000E+00
  0.00000000E+00  0.00000000E+00  0.00000000E+00
  0.00000000E+00  0.00000000E+00  0.00000000E+00
  0.00000000E+00  0.00000000E+00  0.00000000E+00
  0.00000000E+00  0.00000000E+00  0.00000000E+00
  0.00000000E+00  0.00000000E+00  0.00000000E+00
  0.00000000E+00  0.00000000E+00  0.00000000E+00
  0.00000000E+00  0.00000000E+00  0.00000000E+00
  0.00000000E+00  0.00000000E+00  0.00000000E+00
  0.00000000E+00  0.00000000E+00  0.00000000E+00
  0.00000000E+00  0.00000000E+00  0.00000000E+00
  0.00000000E+00  0.00000000E+00  0.00000000E+00
  0.00000000E+00  0.00000000E+00  0.00000000E+00
  0.00000000E+00  0.00000000E+00  0.00000000E+00
  0.00000000E+00  0.00000000E+00  0.00000000E+00
  0.00000000E+00  0.00000000E+00  0.00000000E+00
  0.00000000E+00  0.00000000E+00  0.00000000E+00
  0.00000000E+00  0.00000000E+00  0.00000000E+00
  0.00000000E+00  0.00000000E+00  0.00000000E+00
  0.00000000E+00  0.00000000E+00  0.00000000E+00
  0.00000000E+00  0.00000000E+00  0.00000000E+00
  0.00000000E+00  0.00000000E+00  0.00000000E+00
  0.00000000E+00  0.00000000E+00  0.00000000E+00
  0.00000000E+00  0.00000000E+00  0.00000000E+00
  0.00000000E+00  0.00000000E+00  0.00000000E+00
  0.00000000E+00  0.00000000E+00  0.00000000E+00
  0.00000000E+00  0.00000000E+00  0.00000000E+00
  0.00000000E+00  0.00000000E+00  0.00000000E+00
  0.00000000E+00  0.00000000E+00  0.00000000E+00
  0.00000000E+00  0.00000000E+00  0.00000000E+00
  0.00000000E+00  0.00000000E+00  0.00000000E+00
  0.00000000E+00  0.00000000E+00  0.00000000E+00
  0.00000000E+00  0.00000000E+00  0.00000000E+00
  0.00000000E+00  0.00000000E+00  0.00000000E+00
  0.00000000E+00  0.00000000E+00  0.00000000E+00
  0.00000000E+00  0.00000000E+00  0.00000000E+00
  0.00000000E+00  0.00000000E+00  0.00000000E+00
  0.00000000E+00  0.00000000E+00  0.00000000E+00
  0.00000000E+00  0.00000000E+00  0.00000000E+00
  0.00000000E+00  0.00000000E+00  0.00000000E+00
  0.00000000E+00  0.00000000E+00  0.00000000E+00
  0.00000000E+00  0.00000000E+00  0.00000000E+00
  0.00000000E+00  0.00000000E+00  0.00000000E+00
  0.00000000E+00  0.00000000E+00  0.00000000E+00
  0.00000000E+00  0.00000000E+00  0.00000000E+00
  0.00000000E+00  0.00000000E+00  0.00000000E+00
  0.00000000E+00  0.00000000E+00  0.00000000E+00
  0.00000000E+00  0.00000000E+00  0.00000000E+00
  0.00000000E+00  0.00000000E+00  0.00000000E+00
  0.00000000E+00  0.00000000E+00  0.00000000E+00
  0.00000000E+00  0.00000000E+00  0.00000000E+00
  0.00000000E+00  0.00000000E+00  0.00000000E+00
  0.00000000E+00  0.00000000E+00  0.00000000E+00
  0.00000000E+00  0.00000000E+00  0.00000000E+00
  0.00000000E+00  0.00000000E+00  0.00000000E+00
  0.00000000E+00  0.00000000E+00  0.00000000E+00
  0.00000000E+00  0.00000000E+00  0.00000000E+00
  0.00000000E+00  0.00000000E+00  0.00000000E+00
  0.00000000E+00  0.00000000E+00  0.00000000E+00
  0.00000000E+00  0.00000000E+00  0.00000000E+00
  0.00000000E+00  0.00000000E+00  0.00000000E+00
  0.00000000E+00  0.00000000E+00  0.00000000E+00
  0.00000000E+00  0.00000000E+00  0.00000000E+00
  0.00000000E+00  0.00000000E+00  0.00000000E+00
  0.00000000E+00  0.00000000E+00  0.00000000E+00
  0.00000000E+00  0.00000000E+00  0.00000000E+00
  0.00000000E+00  0.00000000E+00  0.00000000E+00
  0.00000000E+00  0.00000000E+00  0.00000000E+00
  0.00000000E+00  0.00000000E+00  0.00000000E+00
  0.00000000E+00  0.00000000E+00  0.00000000E+00
  0.00000000E+00  0.00000000E+00  0.00000000E+00
  0.00000000E+00  0.00000000E+00  0.00000000E+00
  0.00000000E+00  0.00000000E+00  0.00000000E+00
  0.00000000E+00  0.00000000E+00  0.00000000E+00
  0.00000000E+00  0.00000000E+00  0.00000000E+00
  0.00000000E+00  0.00000000E+00  0.00000000E+00
  0.00000000E+00  0.00000000E+00  0.00000000E+00
  0.00000000E+00  0.00000000E+00  0.00000000E+00
  0.00000000E+00  0.00000000E+00  0.00000000E+00
  0.00000000E+00  0.00000000E+00  0.00000000E+00
  0.00000000E+00  0.00000000E+00  0.00000000E+00
  0.00000000E+00  0.00000000E+00  0.00000000E+00
  0.00000000E+00  0.00000000E+00  0.00000000E+00
  0.00000000E+00  0.00000000E+00  0.00000000E+00
  0.00000000E+00  0.00000000E+00  0.00000000E+00
