 H  O                                   
   1.0000000000000000     
    20.0000000000000000    0.0000000000000000    0.0000000000000000
     0.0000000000000000   20.0000000000000000    0.0000000000000000
     0.0000000000000000    0.0000000000000000   20.0000000000000000
  H               O             
     2     1
Direct
  0.4903776641503799  0.4811733132271186  0.5000000263796857
  0.5271169711370436  0.5486315900163984  0.5000000346985963
  0.4825053647125765  0.5291950967564806  0.4999999389217181

  0.00000000E+00  0.00000000E+00  0.00000000E+00
  0.00000000E+00  0.00000000E+00  0.00000000E+00
  0.00000000E+00  0.00000000E+00  0.00000000E+00
