 vasp.6.4.3 19Mar24 (build Oct 31 2024 19:09:51) complex                         
 executed on             LinuxGNU date 2026.03.16  23:35:05
 running   64 mpi-ranks, with    1 threads/rank, on    1 nodes
 distrk:  each k-point on   64 cores,    1 groups
 distr:  one band on NCORE=   4 cores,   16 groups


--------------------------------------------------------------------------------------------------------


 INCAR:
   SYSTEM = H2O molecule geometry optimisation (RPBE-D3)
   PREC = Normal
   ENCUT = 400
   EDIFF = 1E-8
   EDIFFG = -0.0005
   GGA = RP
   IVDW = 11
   ISPIN = 1
   NELM = 100
   ISMEAR = 0
   SIGMA = 0.01
   IBRION = 2
   NSW = 100
   ISIF = 2
   ISYM = 0
   LREAL = .FALSE.
   ALGO = Normal
   LDIPOL = .FALSE.
   LWAVE = .FALSE.
   LCHARG = .FALSE.
   LASPH = .TRUE.
   NCORE = 4

 POTCAR:    PAW_PBE H 15Jun2001                   
 POTCAR:    PAW_PBE O 08Apr2002                   
 POTCAR:    PAW_PBE H 15Jun2001                   
   VRHFIN =H: ultrasoft test                                                                        
   LEXCH  = PE                                                                                      
   EATOM  =    12.4884 eV,    0.9179 Ry                                                             
                                                                                                    
   TITEL  = PAW_PBE H 15Jun2001                                                                     
   LULTRA =        F    use ultrasoft PP ?                                                          
   IUNSCR =        0    unscreen: 0-lin 1-nonlin 2-no                                               
   RPACOR =    0.000    partial core radius                                                         
   POMASS =    1.000; ZVAL   =    1.000    mass and valenz                                          
   RCORE  =    1.100    outmost cutoff radius                                                       
   RWIGS  =    0.700; RWIGS  =    0.370    wigner-seitz radius (au A)                               
   ENMAX  =  250.000; ENMIN  =  200.000 eV                                                          
   RCLOC  =    0.701    cutoff for local pot                                                        
   LCOR   =        T    correct aug charges                                                         
   LPAW   =        T    paw PP                                                                      
   EAUG   =  400.000                                                                                
   RMAX   =    1.123    core radius for proj-oper                                                   
   RAUG   =    1.200    factor for augmentation sphere                                              
   RDEP   =    1.112    radius for radial grids                                                     
   RDEPT  =    0.926    core radius for aug-charge                                                  
                                                                                                    
   Atomic configuration                                                                             
    2 entries                                                                                       
     n  l   j            E        occ.                                                              
     1  0  0.50        -6.4927   1.0000                                                             
     2  1  0.50        -3.4015   0.0000                                                             
   Description                                                                                      
     l       E           TYP  RCUT    TYP  RCUT                                                     
     0     -6.4927494     23  1.100                                                                 
     0      6.8029130     23  1.100                                                                 
     1     -4.0817478     23  1.100                                                                 
  local pseudopotential read in
  atomic valenz-charges read in
  non local Contribution for L=           0  read in
    real space projection operators read in
  non local Contribution for L=           0  read in
    real space projection operators read in
  non local Contribution for L=           1  read in
    real space projection operators read in
    PAW grid and wavefunctions read in

   number of l-projection  operators is LMAX  =           3
   number of lm-projection operators is LMMAX =           5

 POTCAR:    PAW_PBE O 08Apr2002                   
   VRHFIN =O: s2p4                                                                                  
   LEXCH  = PE                                                                                      
   EATOM  =   432.3788 eV,   31.7789 Ry                                                             
                                                                                                    
   TITEL  = PAW_PBE O 08Apr2002                                                                     
   LULTRA =        F    use ultrasoft PP ?                                                          
   IUNSCR =        1    unscreen: 0-lin 1-nonlin 2-no                                               
   RPACOR =    1.200    partial core radius                                                         
   POMASS =   16.000; ZVAL   =    6.000    mass and valenz                                          
   RCORE  =    1.520    outmost cutoff radius                                                       
   RWIGS  =    1.550; RWIGS  =    0.820    wigner-seitz radius (au A)                               
   ENMAX  =  400.000; ENMIN  =  300.000 eV                                                          
   ICORE  =        2    local potential                                                             
   LCOR   =        T    correct aug charges                                                         
   LPAW   =        T    paw PP                                                                      
   EAUG   =  605.392                                                                                
   DEXC   =    0.000                                                                                
   RMAX   =    1.553    core radius for proj-oper                                                   
   RAUG   =    1.300    factor for augmentation sphere                                              
   RDEP   =    1.550    radius for radial grids                                                     
   RDEPT  =    1.329    core radius for aug-charge                                                  
                                                                                                    
   Atomic configuration                                                                             
    4 entries                                                                                       
     n  l   j            E        occ.                                                              
     1  0  0.50      -514.6923   2.0000                                                             
     2  0  0.50       -23.9615   2.0000                                                             
     2  1  0.50        -9.0305   4.0000                                                             
     3  2  1.50        -9.5241   0.0000                                                             
   Description                                                                                      
     l       E           TYP  RCUT    TYP  RCUT                                                     
     0    -23.9615318     23  1.200                                                                 
     0     -9.5240782     23  1.200                                                                 
     1     -9.0304911     23  1.520                                                                 
     1      8.1634956     23  1.520                                                                 
     2     -9.5240782      7  1.500                                                                 
  local pseudopotential read in
  partial core-charges read in
  partial kinetic energy density read in
  kinetic energy density of atom read in
  atomic valenz-charges read in
  non local Contribution for L=           0  read in
    real space projection operators read in
  non local Contribution for L=           0  read in
    real space projection operators read in
  non local Contribution for L=           1  read in
    real space projection operators read in
  non local Contribution for L=           1  read in
    real space projection operators read in
    PAW grid and wavefunctions read in

   number of l-projection  operators is LMAX  =           4
   number of lm-projection operators is LMMAX =           8

 -----------------------------------------------------------------------------
|                                                                             |
|               ----> ADVICE to this user running VASP <----                  |
|                                                                             |
|     You enforced a specific xc type in the INCAR file but a different       |
|     type was found in the POTCAR file.                                      |
|     I HOPE YOU KNOW WHAT YOU ARE DOING!                                     |
|                                                                             |
 -----------------------------------------------------------------------------

  PAW_PBE H 15Jun2001                   :
 energy of atom  1       EATOM=  -12.4884
 kinetic energy error for atom=    0.0098 (will be added to EATOM!!)
  PAW_PBE O 08Apr2002                   :
 energy of atom  2       EATOM= -432.3788
 kinetic energy error for atom=    0.1156 (will be added to EATOM!!)


 POSCAR:  H  O
  positions in direct lattice
  velocities in cartesian coordinates
 IVDW         = 11
 VDW_S6       =    1.0000
 VDW_S8       =    0.5140
 VDW_SR       =    0.8720
 VDW_RADIUS   =   50.2022 A
 VDW_CNRADIUS =   21.1671 A


 exchange-correlation table for RP
   RHO(1)=    0.500       N(1)  =     2000
   RHO(2)=  100.500       N(2)  =     4000



--------------------------------------------------------------------------------------------------------


 ion  position               nearest neighbor table
   1  0.490  0.481  0.500-   3 0.97
   2  0.527  0.549  0.500-   3 0.97
   3  0.483  0.529  0.500-   1 0.97   2 0.97


IMPORTANT INFORMATION: All symmetrisations will be switched off!
NOSYMM: (Re-)initialisation of all symmetry stuff for point group C_1.


----------------------------------------------------------------------------------------

                                     Primitive cell                                     

  volume of cell :    8000.0000

  direct lattice vectors                    reciprocal lattice vectors
    20.000000000  0.000000000  0.000000000     0.050000000  0.000000000  0.000000000
     0.000000000 20.000000000  0.000000000     0.000000000  0.050000000  0.000000000
     0.000000000  0.000000000 20.000000000     0.000000000  0.000000000  0.050000000

  length of vectors
    20.000000000 20.000000000 20.000000000     0.050000000  0.050000000  0.050000000

  position of ions in fractional coordinates (direct lattice)
     0.490377722  0.481173714  0.500000025
     0.527117229  0.548631746  0.500000033
     0.482505049  0.529194540  0.499999942

  ion indices of the primitive-cell ions
   primitive index   ion index
                 1           1
                 2           2
                 3           3

----------------------------------------------------------------------------------------



 KPOINTS: Gamma only                              

Automatic generation of k-mesh.
 Grid dimensions read from file:
 generate k-points for:    1    1    1

 Generating k-lattice:

  Cartesian coordinates                     Fractional coordinates (reciprocal lattice)
     0.050000000  0.000000000  0.000000000     1.000000000  0.000000000  0.000000000
     0.000000000  0.050000000  0.000000000     0.000000000  1.000000000  0.000000000
     0.000000000  0.000000000  0.050000000     0.000000000  0.000000000  1.000000000

  Length of vectors
     0.050000000  0.050000000  0.050000000

  Shift w.r.t. Gamma in fractional coordinates (k-lattice)
     0.000000000  0.000000000  0.000000000

 
 Subroutine IBZKPT returns following result:
 ===========================================
 
 Found      1 irreducible k-points:
 
 Following reciprocal coordinates:
            Coordinates               Weight
  0.000000  0.000000  0.000000      1.000000
 
 Following cartesian coordinates:
            Coordinates               Weight
  0.000000  0.000000  0.000000      1.000000
 


--------------------------------------------------------------------------------------------------------




 Dimension of arrays:
   k-points           NKPTS =      1   k-points in BZ     NKDIM =      1   number of bands    NBANDS=     16
   number of dos      NEDOS =    301   number of ions     NIONS =      3
   non local maximal  LDIM  =      4   non local SUM 2l+1 LMDIM =      8
   total plane-waves  NPLWV = 941192
   max r-space proj   IRMAX =      1   max aug-charges    IRDMAX=   1726
   dimension x,y,z NGX =    98 NGY =   98 NGZ =   98
   dimension x,y,z NGXF=   196 NGYF=  196 NGZF=  196
   support grid    NGXF=   196 NGYF=  196 NGZF=  196
   ions per type =               2   1
   NGX,Y,Z   is equivalent  to a cutoff of   8.15,  8.15,  8.15 a.u.
   NGXF,Y,Z  is equivalent  to a cutoff of  16.29, 16.29, 16.29 a.u.

 SYSTEM =  H2O molecule geometry optimisation (RPBE
 POSCAR =   H  O                                   

 Startparameter for this run:
   NWRITE =      2    write-flag & timer
   PREC   = normal    normal or accurate (medium, high low for compatibility)
   ISTART =      0    job   : 0-new  1-cont  2-samecut
   ICHARG =      2    charge: 1-file 2-atom 10-const
   ISPIN  =      1    spin polarized calculation?
   LNONCOLLINEAR =      F non collinear calculations
   LSORBIT =      F    spin-orbit coupling
   INIWAV =      1    electr: 0-lowe 1-rand  2-diag
   LASPH  =      T    aspherical Exc in radial PAW
 Electronic Relaxation 1
   ENCUT  =  400.0 eV  29.40 Ry    5.42 a.u.  32.61 32.61 32.61*2*pi/ulx,y,z
   ENINI  =  400.0     initial cutoff
   ENAUG  =  605.4 eV  augmentation charge cutoff
   NELM   =    100;   NELMIN=  2; NELMDL=  0     # of ELM steps 
   EDIFF  = 0.1E-07   stopping-criterion for ELM
   LREAL  =      F    real-space projection
   NLSPLINE    = F    spline interpolate recip. space projectors
   LCOMPAT=      F    compatible to vasp.4.4
   GGA_COMPAT  = T    GGA compatible to vasp.4.4-vasp.4.6
   LMAXPAW     = -100 max onsite density
   LMAXMIX     =    2 max onsite mixed and CHGCAR
   VOSKOWN=      0    Vosko Wilk Nusair interpolation
   ROPT   =    0.00000   0.00000
 Ionic relaxation
   EDIFFG = -.5E-03   stopping-criterion for IOM
   NSW    =    100    number of steps for IOM
   NBLOCK =      1;   KBLOCK =    100    inner block; outer block 
   IBRION =      2    ionic relax: 0-MD 1-quasi-New 2-CG
   NFREE  =      1    steps in history (QN), initial steepest desc. (CG)
   ISIF   =      2    stress and relaxation
   IWAVPR =     11    prediction:  0-non 1-charg 2-wave 3-comb
   ISYM   =      0    0-nonsym 1-usesym 2-fastsym
   LCORR  =      T    Harris-Foulkes like correction to forces

   POTIM  = 0.5000    time-step for ionic-motion
   TEIN   =    0.0    initial temperature
   TEBEG  =    0.0;   TEEND  =   0.0 temperature during run
   SMASS  =  -3.00    Nose mass-parameter (am)
   estimated Nose-frequenzy (Omega)   =  0.10E-29 period in steps = 0.13E+47 mass=  -0.914E-26a.u.
   SCALEE = 1.0000    scale energy and forces
   NPACO  =    256;   APACO  = 10.0  distance and # of slots for P.C.
   PSTRESS=    0.0 pullay stress

  Mass of Ions in am
   POMASS =   1.00 16.00
  Ionic Valenz
   ZVAL   =   1.00  6.00
  Atomic Wigner-Seitz radii
   RWIGS  =  -1.00 -1.00
  virtual crystal weights 
   VCA    =   1.00  1.00
   NELECT =       8.0000    total number of electrons
   NUPDOWN=      -1.0000    fix difference up-down

 DOS related values:
   EMIN   =  10.00;   EMAX   =-10.00  energy-range for DOS
   EFERMI =   0.00;   METHOD = LEGACY      
   ISMEAR =     0;   SIGMA  =   0.01  broadening in eV -4-tet -1-fermi 0-gaus

 Electronic relaxation 2 (details)
   IALGO  =     38    algorithm
   LDIAG  =      T    sub-space diagonalisation (order eigenvalues)
   LSUBROT=      F    optimize rotation matrix (better conditioning)
   TURBO    =      0    0=normal 1=particle mesh
   IRESTART =      0    0=no restart 2=restart with 2 vectors
   NREBOOT  =      0    no. of reboots
   NMIN     =      0    reboot dimension
   EREF     =   0.00    reference energy to select bands
   IMIX   =      4    mixing-type and parameters
     AMIX     =   0.40;   BMIX     =  1.00
     AMIX_MAG =   1.60;   BMIX_MAG =  1.00
     AMIN     =   0.10
     WC   =   100.;   INIMIX=   1;  MIXPRE=   1;  MAXMIX= -45

 Intra band minimization:
   WEIMIN = 0.0010     energy-eigenvalue tresh-hold
   EBREAK =  0.16E-09  absolut break condition
   DEPER  =   0.30     relativ break condition  

   TIME   =   0.40     timestep for ELM

  volume/ion in A,a.u.               =    2666.67     17995.55
  Fermi-wavevector in a.u.,A,eV,Ry     =   0.163710  0.309367  0.364649  0.026801
  Thomas-Fermi vector in A             =   0.862763

 Write flags
   LWAVE        =      F    write WAVECAR
   LDOWNSAMPLE  =      F    k-point downsampling of WAVECAR
   LCHARG       =      F    write CHGCAR
   LVTOT        =      F    write LOCPOT, total local potential
   LVHAR        =      F    write LOCPOT, Hartree potential only
   WRT_POTENTIAL= false  ! write potential to hdf5 file
   LELF         =      F    write electronic localiz. function (ELF)
   LORBIT       =      0    0 simple, 1 ext, 2 COOP (PROOUT), +10 PAW based schemes


 Dipole corrections
   LMONO      =      F    monopole corrections only (constant potential shift)
   LDIPOL     =      F    correct potential (dipole corrections)
   IDIPOL     =      0    1-x, 2-y, 3-z, 4-all directions 
   EPSILON    =  1.0000000 bulk dielectric constant
   LVACPOTAV  =      F  vacuum potentials using an averaging scheme for the charge density
   VACPOTFLAT =  0.1000000 required flatness to determine vacuum potential
 Exchange correlation treatment:
   GGA     = RP    functional components
   XC_C    = 1    coefficients multiplying the functional components
   LIBXC   =     F    Libxc                    
   VOSKOWN =     0    Vosko Wilk Nusair interpolation
   LHFCALC =     F    Hartree Fock is set to
   LHFONE  =     F    Hartree Fock one center treatment
   AEXX    =    0.0000 exact exchange contribution

 Parameters of functionals:
   RP:
     No parameter

 Van der Waals corrections
   IVDW    =    11    specifies the selected vdW correction

 Linear response parameters
   LEPSILON=     F    determine dielectric tensor
   LRPA    =     F    only Hartree local field effects (RPA)
   LNABLA  =     F    use nabla operator in PAW spheres
   LVEL    =     F    velocity operator in full k-point grid
   CSHIFT  =0.1000    complex shift for real part using Kramers Kronig
   OMEGAMAX=  -1.0    maximum frequency
   DEG_THRESHOLD= 0.2000000E-02 threshold for treating states as degnerate
   RTIME   =   -0.100 relaxation time in fs
  (WPLASMAI=    0.000 imaginary part of plasma frequency in eV, 0.658/RTIME)
   DFIELD  = 0.0000000 0.0000000 0.0000000 field for delta impulse in time

  Optional k-point grid parameters
   LKPOINTS_OPT  =     F    use optional k-point grid
   KPOINTS_OPT_MODE=     1    mode for optional k-point grid

 Orbital magnetization related:
   ORBITALMAG=     F  switch on orbital magnetization
   LCHIMAG   =     F  perturbation theory with respect to B field
   DQ        =  0.001000  dq finite difference perturbation B field
   LLRAUG    =     F  two centre corrections for induced B field
   LBONE     =     F  B-component reconstruction in AE one-centre
   LVGVCALC  =     T  calculate vGv susceptibility
   LVGVAPPL  =     F  apply vGv susceptibility instead of pGv for G=0

 Random number generation:
   RANDOM_GENERATOR = DEFAULT
   PCG_SEED         = not used


--------------------------------------------------------------------------------------------------------


 conjugate gradient relaxation of ions
 charge density and potential will be updated during run
 non-spin polarized calculation
 Variant of blocked Davidson
 Davidson routine will perform the subspace rotation
 perform sub-space diagonalisation
    after iterative eigenvector-optimisation
 modified Broyden-mixing scheme, WC =      100.0
 initial mixing is a Kerker type mixing with AMIX =  0.4000 and BMIX =      1.0000
 Hartree-type preconditioning will be used
 using additional bands           12
 reciprocal scheme for non local part
 use partial core corrections
 calculate Harris-corrections to forces   (improved forces if not selfconsistent)
 use gradient corrections 
 use of overlap-Matrix (Vanderbilt PP)
 Gauss-broadening in eV      SIGMA  =   0.01


--------------------------------------------------------------------------------------------------------


  energy-cutoff  :      400.00
  volume of cell :     8000.00
      direct lattice vectors                 reciprocal lattice vectors
    20.000000000  0.000000000  0.000000000     0.050000000  0.000000000  0.000000000
     0.000000000 20.000000000  0.000000000     0.000000000  0.050000000  0.000000000
     0.000000000  0.000000000 20.000000000     0.000000000  0.000000000  0.050000000

  length of vectors
    20.000000000 20.000000000 20.000000000     0.050000000  0.050000000  0.050000000



 k-points in units of 2pi/SCALE and weight: Gamma only                              
   0.00000000  0.00000000  0.00000000       1.000

 k-points in reciprocal lattice and weights: Gamma only                              
   0.00000000  0.00000000  0.00000000       1.000

 position of ions in fractional coordinates (direct lattice) 
   0.49037772  0.48117371  0.50000003
   0.52711723  0.54863175  0.50000003
   0.48250505  0.52919454  0.49999994

 position of ions in cartesian coordinates  (Angst):
   9.80755444  9.62347428 10.00000050
  10.54234458 10.97263491 10.00000067
   9.65010097 10.58389081  9.99999883



--------------------------------------------------------------------------------------------------------


 k-point     1 :   0.0000 0.0000 0.0000  plane waves:  145165

 maximum and minimum number of plane-waves per node :     36308    36275

 maximum number of plane-waves:    145165
 maximum index in each direction: 
   IXMAX=   32   IYMAX=   32   IZMAX=   32
   IXMIN=  -32   IYMIN=  -32   IZMIN=  -32


 parallel 3D FFT for wavefunctions:
    minimum data exchange during FFTs selected (reduces bandwidth)
 parallel 3D FFT for charge:
    minimum data exchange during FFTs selected (reduces bandwidth)


 total amount of memory used by VASP MPI-rank0    67590. kBytes
=======================================================================

   base      :      30000. kBytes
   nonl-proj :       6392. kBytes
   fftplans  :      12303. kBytes
   grid      :      18311. kBytes
   one-center:          3. kBytes
   wavefun   :        581. kBytes

     INWAV:  cpu time      0.0000: real time      0.0000
 Broyden mixing: mesh for mixing (old mesh)
   NGX = 65   NGY = 65   NGZ = 65
  (NGX  =196   NGY  =196   NGZ  =196)
  gives a total of 274625 points

 initial charge density was supplied:
 charge density of overlapping atoms calculated
 number of electron       8.0000000 magnetization 
 keeping initial charge density in first step


--------------------------------------------------------------------------------------------------------


 Maximum index for augmentation-charges            0 (set IRDMAX)


--------------------------------------------------------------------------------------------------------


 First call to EWALD:  gamma=   0.089
 Maximum number of real-space cells 3x 3x 3
 Maximum number of reciprocal cells 3x 3x 3

    FEWALD:  cpu time      0.0010: real time      0.0010


--------------------------------------- Ionic step        1  -------------------------------------------




--------------------------------------- Iteration      1(   1)  ---------------------------------------


    POTLOK:  cpu time      0.1266: real time      0.1404
    SETDIJ:  cpu time      0.0524: real time      0.0529
     EDDAV:  cpu time      0.1910: real time      0.1937
       DOS:  cpu time      0.0006: real time      0.0010
    --------------------------------------------
      LOOP:  cpu time      0.3706: real time      0.3880

 eigenvalue-minimisations  :    48
 total energy-change (2. order) : 0.6832385E+02  (-0.1311225E+03)
 number of electron       8.0000000 magnetization 
 augmentation part        8.0000000 magnetization 

 Free energy of the ion-electron system (eV)
  ---------------------------------------------------
  alpha Z        PSCENC =         0.02803141
  Ewald energy   TEWEN  =       121.60235440
  -Hartree energ DENC   =      -480.59834190
  -exchange      EXHF   =         0.00000000
  -V(xc)+E(xc)   XCENC  =        31.79035636
  PAW double counting   =       350.99800903     -352.54614913
  entropy T*S    EENTRO =        -0.00000000
  eigenvalues    EBANDS =       -60.22022940
  atomic energy  EATOM  =       457.26981990
  Solvation  Ediel_sol  =         0.00000000
  ---------------------------------------------------
  free energy    TOTEN  =        68.32385067 eV

  energy without entropy =       68.32385067  energy(sigma->0) =       68.32385067


--------------------------------------------------------------------------------------------------------




--------------------------------------- Iteration      1(   2)  ---------------------------------------


     EDDAV:  cpu time      0.2390: real time      0.2421
       DOS:  cpu time      0.0007: real time      0.0006
    --------------------------------------------
      LOOP:  cpu time      0.2396: real time      0.2427

 eigenvalue-minimisations  :    64
 total energy-change (2. order) :-0.6829699E+02  (-0.6829699E+02)
 number of electron       8.0000000 magnetization 
 augmentation part        8.0000000 magnetization 

 Free energy of the ion-electron system (eV)
  ---------------------------------------------------
  alpha Z        PSCENC =         0.02803141
  Ewald energy   TEWEN  =       121.60235440
  -Hartree energ DENC   =      -480.59834190
  -exchange      EXHF   =         0.00000000
  -V(xc)+E(xc)   XCENC  =        31.79035636
  PAW double counting   =       350.99800903     -352.54614913
  entropy T*S    EENTRO =        -0.00000000
  eigenvalues    EBANDS =      -128.51721904
  atomic energy  EATOM  =       457.26981990
  Solvation  Ediel_sol  =         0.00000000
  ---------------------------------------------------
  free energy    TOTEN  =         0.02686103 eV

  energy without entropy =        0.02686103  energy(sigma->0) =        0.02686103


--------------------------------------------------------------------------------------------------------




--------------------------------------- Iteration      1(   3)  ---------------------------------------


     EDDAV:  cpu time      0.1453: real time      0.1471
       DOS:  cpu time      0.0006: real time      0.0006
    --------------------------------------------
      LOOP:  cpu time      0.1459: real time      0.1477

 eigenvalue-minimisations  :    32
 total energy-change (2. order) :-0.1575144E+02  (-0.1575144E+02)
 number of electron       8.0000000 magnetization 
 augmentation part        8.0000000 magnetization 

 Free energy of the ion-electron system (eV)
  ---------------------------------------------------
  alpha Z        PSCENC =         0.02803141
  Ewald energy   TEWEN  =       121.60235440
  -Hartree energ DENC   =      -480.59834190
  -exchange      EXHF   =         0.00000000
  -V(xc)+E(xc)   XCENC  =        31.79035636
  PAW double counting   =       350.99800903     -352.54614913
  entropy T*S    EENTRO =        -0.00000000
  eigenvalues    EBANDS =      -144.26865464
  atomic energy  EATOM  =       457.26981990
  Solvation  Ediel_sol  =         0.00000000
  ---------------------------------------------------
  free energy    TOTEN  =       -15.72457457 eV

  energy without entropy =      -15.72457457  energy(sigma->0) =      -15.72457457


--------------------------------------------------------------------------------------------------------




--------------------------------------- Iteration      1(   4)  ---------------------------------------


     EDDAV:  cpu time      0.1429: real time      0.1455
       DOS:  cpu time      0.0008: real time      0.0008
    --------------------------------------------
      LOOP:  cpu time      0.1436: real time      0.1462

 eigenvalue-minimisations  :    32
 total energy-change (2. order) :-0.3893932E+00  (-0.3893932E+00)
 number of electron       8.0000000 magnetization 
 augmentation part        8.0000000 magnetization 

 Free energy of the ion-electron system (eV)
  ---------------------------------------------------
  alpha Z        PSCENC =         0.02803141
  Ewald energy   TEWEN  =       121.60235440
  -Hartree energ DENC   =      -480.59834190
  -exchange      EXHF   =         0.00000000
  -V(xc)+E(xc)   XCENC  =        31.79035636
  PAW double counting   =       350.99800903     -352.54614913
  entropy T*S    EENTRO =        -0.00000000
  eigenvalues    EBANDS =      -144.65804784
  atomic energy  EATOM  =       457.26981990
  Solvation  Ediel_sol  =         0.00000000
  ---------------------------------------------------
  free energy    TOTEN  =       -16.11396776 eV

  energy without entropy =      -16.11396776  energy(sigma->0) =      -16.11396776


--------------------------------------------------------------------------------------------------------




--------------------------------------- Iteration      1(   5)  ---------------------------------------


     EDDAV:  cpu time      0.2388: real time      0.2423
       DOS:  cpu time      0.0006: real time      0.0006
    CHARGE:  cpu time      0.0374: real time      0.0380
    MIXING:  cpu time      0.0035: real time      0.0038
    --------------------------------------------
      LOOP:  cpu time      0.2804: real time      0.2846

 eigenvalue-minimisations  :    64
 total energy-change (2. order) :-0.2541942E-02  (-0.2541942E-02)
 number of electron       8.0000013 magnetization 
 augmentation part        0.8227425 magnetization 

 Broyden mixing:
  rms(total) = 0.77762E+00    rms(broyden)= 0.77550E+00
  rms(prec ) = 0.85150E+00
  weight for this iteration     100.00

 Free energy of the ion-electron system (eV)
  ---------------------------------------------------
  alpha Z        PSCENC =         0.02803141
  Ewald energy   TEWEN  =       121.60235440
  -Hartree energ DENC   =      -480.59834190
  -exchange      EXHF   =         0.00000000
  -V(xc)+E(xc)   XCENC  =        31.79035636
  PAW double counting   =       350.99800903     -352.54614913
  entropy T*S    EENTRO =        -0.00000000
  eigenvalues    EBANDS =      -144.66058978
  atomic energy  EATOM  =       457.26981990
  Solvation  Ediel_sol  =         0.00000000
  ---------------------------------------------------
  free energy    TOTEN  =       -16.11650971 eV

  energy without entropy =      -16.11650971  energy(sigma->0) =      -16.11650971


--------------------------------------------------------------------------------------------------------




--------------------------------------- Iteration      1(   6)  ---------------------------------------


    POTLOK:  cpu time      0.1198: real time      0.1210
    SETDIJ:  cpu time      0.0522: real time      0.0525
     EDDAV:  cpu time      0.1400: real time      0.1417
       DOS:  cpu time      0.0008: real time      0.0008
    CHARGE:  cpu time      0.0366: real time      0.0371
    MIXING:  cpu time      0.0031: real time      0.0036
    --------------------------------------------
      LOOP:  cpu time      0.3525: real time      0.3566

 eigenvalue-minimisations  :    32
 total energy-change (2. order) : 0.1788555E+01  (-0.8850081E+00)
 number of electron       8.0000013 magnetization 
 augmentation part        0.6922971 magnetization 

 Broyden mixing:
  rms(total) = 0.32888E+00    rms(broyden)= 0.32835E+00
  rms(prec ) = 0.34478E+00
  weight for this iteration     100.00

 eigenvalues of (default mixing * dielectric matrix)
  average eigenvalue GAMMA=   0.9297
  0.9297

 Free energy of the ion-electron system (eV)
  ---------------------------------------------------
  alpha Z        PSCENC =         0.02803141
  Ewald energy   TEWEN  =       121.60235440
  -Hartree energ DENC   =      -504.24179172
  -exchange      EXHF   =         0.00000000
  -V(xc)+E(xc)   XCENC  =        33.09757000
  PAW double counting   =       450.73310888     -452.55392197
  entropy T*S    EENTRO =        -0.00000000
  eigenvalues    EBANDS =      -120.26312533
  atomic energy  EATOM  =       457.26981990
  Solvation  Ediel_sol  =         0.00000000
  ---------------------------------------------------
  free energy    TOTEN  =       -14.32795443 eV

  energy without entropy =      -14.32795443  energy(sigma->0) =      -14.32795443


--------------------------------------------------------------------------------------------------------




--------------------------------------- Iteration      1(   7)  ---------------------------------------


    POTLOK:  cpu time      0.1189: real time      0.1202
    SETDIJ:  cpu time      0.0522: real time      0.0525
     EDDAV:  cpu time      0.2420: real time      0.2449
       DOS:  cpu time      0.0007: real time      0.0007
    CHARGE:  cpu time      0.0362: real time      0.0367
    MIXING:  cpu time      0.0029: real time      0.0029
    --------------------------------------------
      LOOP:  cpu time      0.4529: real time      0.4579

 eigenvalue-minimisations  :    64
 total energy-change (2. order) : 0.9330761E-01  (-0.1001558E-01)
 number of electron       8.0000013 magnetization 
 augmentation part        0.6884566 magnetization 

 Broyden mixing:
  rms(total) = 0.20844E+00    rms(broyden)= 0.20841E+00
  rms(prec ) = 0.21995E+00
  weight for this iteration     100.00

 eigenvalues of (default mixing * dielectric matrix)
  average eigenvalue GAMMA=   1.7343
  1.0423  2.4264

 Free energy of the ion-electron system (eV)
  ---------------------------------------------------
  alpha Z        PSCENC =         0.02803141
  Ewald energy   TEWEN  =       121.60235440
  -Hartree energ DENC   =      -507.85321757
  -exchange      EXHF   =         0.00000000
  -V(xc)+E(xc)   XCENC  =        33.28459275
  PAW double counting   =       496.12632663     -497.91637326
  entropy T*S    EENTRO =        -0.00000000
  eigenvalues    EBANDS =      -116.77618108
  atomic energy  EATOM  =       457.26981990
  Solvation  Ediel_sol  =         0.00000000
  ---------------------------------------------------
  free energy    TOTEN  =       -14.23464682 eV

  energy without entropy =      -14.23464682  energy(sigma->0) =      -14.23464682


--------------------------------------------------------------------------------------------------------




--------------------------------------- Iteration      1(   8)  ---------------------------------------


    POTLOK:  cpu time      0.1180: real time      0.1195
    SETDIJ:  cpu time      0.0522: real time      0.0525
     EDDAV:  cpu time      0.1404: real time      0.1421
       DOS:  cpu time      0.0009: real time      0.0009
    CHARGE:  cpu time      0.0364: real time      0.0368
    MIXING:  cpu time      0.0031: real time      0.0031
    --------------------------------------------
      LOOP:  cpu time      0.3510: real time      0.3549

 eigenvalue-minimisations  :    32
 total energy-change (2. order) : 0.7834093E-01  (-0.8194767E-02)
 number of electron       8.0000013 magnetization 
 augmentation part        0.6870886 magnetization 

 Broyden mixing:
  rms(total) = 0.18303E-01    rms(broyden)= 0.18297E-01
  rms(prec ) = 0.27772E-01
  weight for this iteration     100.00

 eigenvalues of (default mixing * dielectric matrix)
  average eigenvalue GAMMA=   1.4837
  2.4019  1.0246  1.0246

 Free energy of the ion-electron system (eV)
  ---------------------------------------------------
  alpha Z        PSCENC =         0.02803141
  Ewald energy   TEWEN  =       121.60235440
  -Hartree energ DENC   =      -513.38289040
  -exchange      EXHF   =         0.00000000
  -V(xc)+E(xc)   XCENC  =        33.59505280
  PAW double counting   =       570.78487400     -572.53533941
  entropy T*S    EENTRO =        -0.00000000
  eigenvalues    EBANDS =      -111.51820859
  atomic energy  EATOM  =       457.26981990
  Solvation  Ediel_sol  =         0.00000000
  ---------------------------------------------------
  free energy    TOTEN  =       -14.15630589 eV

  energy without entropy =      -14.15630589  energy(sigma->0) =      -14.15630589


--------------------------------------------------------------------------------------------------------




--------------------------------------- Iteration      1(   9)  ---------------------------------------


    POTLOK:  cpu time      0.1183: real time      0.1195
    SETDIJ:  cpu time      0.0522: real time      0.0524
     EDDAV:  cpu time      0.2399: real time      0.2428
       DOS:  cpu time      0.0007: real time      0.0007
    CHARGE:  cpu time      0.0364: real time      0.0368
    MIXING:  cpu time      0.0030: real time      0.0031
    --------------------------------------------
      LOOP:  cpu time      0.4506: real time      0.4554

 eigenvalue-minimisations  :    64
 total energy-change (2. order) : 0.2049186E-03  (-0.4470095E-03)
 number of electron       8.0000013 magnetization 
 augmentation part        0.6843288 magnetization 

 Broyden mixing:
  rms(total) = 0.14692E-01    rms(broyden)= 0.14684E-01
  rms(prec ) = 0.22078E-01
  weight for this iteration     100.00

 eigenvalues of (default mixing * dielectric matrix)
  average eigenvalue GAMMA=   1.8998
  1.0022  1.0022  2.6435  2.9515

 Free energy of the ion-electron system (eV)
  ---------------------------------------------------
  alpha Z        PSCENC =         0.02803141
  Ewald energy   TEWEN  =       121.60235440
  -Hartree energ DENC   =      -513.97520391
  -exchange      EXHF   =         0.00000000
  -V(xc)+E(xc)   XCENC  =        33.61410175
  PAW double counting   =       567.58714817     -569.34003636
  entropy T*S    EENTRO =        -0.00000000
  eigenvalues    EBANDS =      -110.94231633
  atomic energy  EATOM  =       457.26981990
  Solvation  Ediel_sol  =         0.00000000
  ---------------------------------------------------
  free energy    TOTEN  =       -14.15610098 eV

  energy without entropy =      -14.15610098  energy(sigma->0) =      -14.15610098


--------------------------------------------------------------------------------------------------------




--------------------------------------- Iteration      1(  10)  ---------------------------------------


    POTLOK:  cpu time      0.1192: real time      0.1206
    SETDIJ:  cpu time      0.0522: real time      0.0524
     EDDAV:  cpu time      0.1402: real time      0.1420
       DOS:  cpu time      0.0007: real time      0.0007
    CHARGE:  cpu time      0.0362: real time      0.0366
    MIXING:  cpu time      0.0033: real time      0.0034
    --------------------------------------------
      LOOP:  cpu time      0.3518: real time      0.3558

 eigenvalue-minimisations  :    32
 total energy-change (2. order) :-0.4316518E-02  (-0.6005807E-03)
 number of electron       8.0000013 magnetization 
 augmentation part        0.6853674 magnetization 

 Broyden mixing:
  rms(total) = 0.87311E-02    rms(broyden)= 0.87261E-02
  rms(prec ) = 0.11813E-01
  weight for this iteration     100.00

 eigenvalues of (default mixing * dielectric matrix)
  average eigenvalue GAMMA=   1.7362
  3.2983  2.4402  1.0822  0.9301  0.9301

 Free energy of the ion-electron system (eV)
  ---------------------------------------------------
  alpha Z        PSCENC =         0.02803141
  Ewald energy   TEWEN  =       121.60235440
  -Hartree energ DENC   =      -514.69544055
  -exchange      EXHF   =         0.00000000
  -V(xc)+E(xc)   XCENC  =        33.61434691
  PAW double counting   =       559.66839504     -561.41101571
  entropy T*S    EENTRO =        -0.00000000
  eigenvalues    EBANDS =      -110.23690889
  atomic energy  EATOM  =       457.26981990
  Solvation  Ediel_sol  =         0.00000000
  ---------------------------------------------------
  free energy    TOTEN  =       -14.16041749 eV

  energy without entropy =      -14.16041749  energy(sigma->0) =      -14.16041749


--------------------------------------------------------------------------------------------------------




--------------------------------------- Iteration      1(  11)  ---------------------------------------


    POTLOK:  cpu time      0.1189: real time      0.1201
    SETDIJ:  cpu time      0.0521: real time      0.0523
     EDDAV:  cpu time      0.1966: real time      0.1991
       DOS:  cpu time      0.0016: real time      0.0016
    CHARGE:  cpu time      0.0369: real time      0.0374
    MIXING:  cpu time      0.0043: real time      0.0044
    --------------------------------------------
      LOOP:  cpu time      0.4104: real time      0.4149

 eigenvalue-minimisations  :    48
 total energy-change (2. order) :-0.2886762E-02  (-0.2236858E-03)
 number of electron       8.0000013 magnetization 
 augmentation part        0.6834438 magnetization 

 Broyden mixing:
  rms(total) = 0.41843E-02    rms(broyden)= 0.41787E-02
  rms(prec ) = 0.72038E-02
  weight for this iteration     100.00

 eigenvalues of (default mixing * dielectric matrix)
  average eigenvalue GAMMA=   2.1309
  4.5694  2.9125  2.3754  1.0804  0.9239  0.9239

 Free energy of the ion-electron system (eV)
  ---------------------------------------------------
  alpha Z        PSCENC =         0.02803141
  Ewald energy   TEWEN  =       121.60235440
  -Hartree energ DENC   =      -515.18782751
  -exchange      EXHF   =         0.00000000
  -V(xc)+E(xc)   XCENC  =        33.63401372
  PAW double counting   =       561.70947511     -563.45505935
  entropy T*S    EENTRO =        -0.00000000
  eigenvalues    EBANDS =      -109.76411193
  atomic energy  EATOM  =       457.26981990
  Solvation  Ediel_sol  =         0.00000000
  ---------------------------------------------------
  free energy    TOTEN  =       -14.16330426 eV

  energy without entropy =      -14.16330426  energy(sigma->0) =      -14.16330426


--------------------------------------------------------------------------------------------------------




--------------------------------------- Iteration      1(  12)  ---------------------------------------


    POTLOK:  cpu time      0.1362: real time      0.1377
    SETDIJ:  cpu time      0.0521: real time      0.0523
     EDDAV:  cpu time      0.1398: real time      0.1414
       DOS:  cpu time      0.0006: real time      0.0006
    CHARGE:  cpu time      0.0364: real time      0.0369
    MIXING:  cpu time      0.0036: real time      0.0036
    --------------------------------------------
      LOOP:  cpu time      0.3687: real time      0.3726

 eigenvalue-minimisations  :    32
 total energy-change (2. order) :-0.6539294E-02  (-0.2692671E-03)
 number of electron       8.0000013 magnetization 
 augmentation part        0.6835805 magnetization 

 Broyden mixing:
  rms(total) = 0.26757E-02    rms(broyden)= 0.26755E-02
  rms(prec ) = 0.36221E-02
  weight for this iteration     100.00

 eigenvalues of (default mixing * dielectric matrix)
  average eigenvalue GAMMA=   2.0673
  4.7498  3.0342  2.4970  1.1538  1.1538  0.9413  0.9413

 Free energy of the ion-electron system (eV)
  ---------------------------------------------------
  alpha Z        PSCENC =         0.02803141
  Ewald energy   TEWEN  =       121.60235440
  -Hartree energ DENC   =      -515.39286599
  -exchange      EXHF   =         0.00000000
  -V(xc)+E(xc)   XCENC  =        33.62648604
  PAW double counting   =       561.88372826     -563.62868469
  entropy T*S    EENTRO =        -0.00000000
  eigenvalues    EBANDS =      -109.55871287
  atomic energy  EATOM  =       457.26981990
  Solvation  Ediel_sol  =         0.00000000
  ---------------------------------------------------
  free energy    TOTEN  =       -14.16984355 eV

  energy without entropy =      -14.16984355  energy(sigma->0) =      -14.16984355


--------------------------------------------------------------------------------------------------------




--------------------------------------- Iteration      1(  13)  ---------------------------------------


    POTLOK:  cpu time      0.1185: real time      0.1201
    SETDIJ:  cpu time      0.0521: real time      0.0523
     EDDAV:  cpu time      0.2402: real time      0.2429
       DOS:  cpu time      0.0007: real time      0.0007
    CHARGE:  cpu time      0.0362: real time      0.0367
    MIXING:  cpu time      0.0035: real time      0.0036
    --------------------------------------------
      LOOP:  cpu time      0.4512: real time      0.4562

 eigenvalue-minimisations  :    64
 total energy-change (2. order) :-0.1691575E-02  (-0.2167405E-04)
 number of electron       8.0000013 magnetization 
 augmentation part        0.6836911 magnetization 

 Broyden mixing:
  rms(total) = 0.15239E-02    rms(broyden)= 0.15229E-02
  rms(prec ) = 0.22144E-02
  weight for this iteration     100.00

 eigenvalues of (default mixing * dielectric matrix)
  average eigenvalue GAMMA=   2.3197
  6.2597  3.3099  2.7518  2.3506  1.1244  0.9456  0.9456  0.8700

 Free energy of the ion-electron system (eV)
  ---------------------------------------------------
  alpha Z        PSCENC =         0.02803141
  Ewald energy   TEWEN  =       121.60235440
  -Hartree energ DENC   =      -515.37589987
  -exchange      EXHF   =         0.00000000
  -V(xc)+E(xc)   XCENC  =        33.62343344
  PAW double counting   =       562.33380658     -564.07816871
  entropy T*S    EENTRO =        -0.00000000
  eigenvalues    EBANDS =      -109.57491227
  atomic energy  EATOM  =       457.26981990
  Solvation  Ediel_sol  =         0.00000000
  ---------------------------------------------------
  free energy    TOTEN  =       -14.17153513 eV

  energy without entropy =      -14.17153513  energy(sigma->0) =      -14.17153513


--------------------------------------------------------------------------------------------------------




--------------------------------------- Iteration      1(  14)  ---------------------------------------


    POTLOK:  cpu time      0.1185: real time      0.1199
    SETDIJ:  cpu time      0.0520: real time      0.0523
     EDDAV:  cpu time      0.1414: real time      0.1430
       DOS:  cpu time      0.0007: real time      0.0007
    CHARGE:  cpu time      0.0363: real time      0.0367
    MIXING:  cpu time      0.0038: real time      0.0038
    --------------------------------------------
      LOOP:  cpu time      0.3527: real time      0.3564

 eigenvalue-minimisations  :    32
 total energy-change (2. order) :-0.1434691E-02  (-0.1873707E-04)
 number of electron       8.0000013 magnetization 
 augmentation part        0.6838172 magnetization 

 Broyden mixing:
  rms(total) = 0.94566E-03    rms(broyden)= 0.94493E-03
  rms(prec ) = 0.12073E-02
  weight for this iteration     100.00

 eigenvalues of (default mixing * dielectric matrix)
  average eigenvalue GAMMA=   2.2818
  6.7944  3.5563  2.4320  2.4320  1.2391  1.2391  0.9578  0.9578  0.9281

 Free energy of the ion-electron system (eV)
  ---------------------------------------------------
  alpha Z        PSCENC =         0.02803141
  Ewald energy   TEWEN  =       121.60235440
  -Hartree energ DENC   =      -515.33256043
  -exchange      EXHF   =         0.00000000
  -V(xc)+E(xc)   XCENC  =        33.61830160
  PAW double counting   =       561.74945968     -563.49340084
  entropy T*S    EENTRO =        -0.00000000
  eigenvalues    EBANDS =      -109.61497554
  atomic energy  EATOM  =       457.26981990
  Solvation  Ediel_sol  =         0.00000000
  ---------------------------------------------------
  free energy    TOTEN  =       -14.17296982 eV

  energy without entropy =      -14.17296982  energy(sigma->0) =      -14.17296982


--------------------------------------------------------------------------------------------------------




--------------------------------------- Iteration      1(  15)  ---------------------------------------


    POTLOK:  cpu time      0.1191: real time      0.1205
    SETDIJ:  cpu time      0.0520: real time      0.0523
     EDDAV:  cpu time      0.2431: real time      0.2462
       DOS:  cpu time      0.0006: real time      0.0006
    CHARGE:  cpu time      0.0362: real time      0.0367
    MIXING:  cpu time      0.0038: real time      0.0038
    --------------------------------------------
      LOOP:  cpu time      0.4548: real time      0.4602

 eigenvalue-minimisations  :    64
 total energy-change (2. order) :-0.3275030E-03  (-0.1439228E-05)
 number of electron       8.0000013 magnetization 
 augmentation part        0.6837712 magnetization 

 Broyden mixing:
  rms(total) = 0.35529E-03    rms(broyden)= 0.35511E-03
  rms(prec ) = 0.62857E-03
  weight for this iteration     100.00

 eigenvalues of (default mixing * dielectric matrix)
  average eigenvalue GAMMA=   2.5051
  7.8618  4.4911  2.9430  2.5293  2.3309  1.1154  0.9491  0.9491  1.0104  0.8713

 Free energy of the ion-electron system (eV)
  ---------------------------------------------------
  alpha Z        PSCENC =         0.02803141
  Ewald energy   TEWEN  =       121.60235440
  -Hartree energ DENC   =      -515.31919270
  -exchange      EXHF   =         0.00000000
  -V(xc)+E(xc)   XCENC  =        33.61738361
  PAW double counting   =       561.67332188     -563.41731896
  entropy T*S    EENTRO =        -0.00000000
  eigenvalues    EBANDS =      -109.62769686
  atomic energy  EATOM  =       457.26981990
  Solvation  Ediel_sol  =         0.00000000
  ---------------------------------------------------
  free energy    TOTEN  =       -14.17329732 eV

  energy without entropy =      -14.17329732  energy(sigma->0) =      -14.17329732


--------------------------------------------------------------------------------------------------------




--------------------------------------- Iteration      1(  16)  ---------------------------------------


    POTLOK:  cpu time      0.1186: real time      0.1200
    SETDIJ:  cpu time      0.0520: real time      0.0522
     EDDAV:  cpu time      0.2384: real time      0.2413
       DOS:  cpu time      0.0007: real time      0.0006
    CHARGE:  cpu time      0.0362: real time      0.0366
    MIXING:  cpu time      0.0041: real time      0.0041
    --------------------------------------------
      LOOP:  cpu time      0.4500: real time      0.4549

 eigenvalue-minimisations  :    64
 total energy-change (2. order) :-0.3392800E-03  (-0.2250610E-05)
 number of electron       8.0000013 magnetization 
 augmentation part        0.6837144 magnetization 

 Broyden mixing:
  rms(total) = 0.22375E-03    rms(broyden)= 0.22364E-03
  rms(prec ) = 0.32273E-03
  weight for this iteration     100.00

 eigenvalues of (default mixing * dielectric matrix)
  average eigenvalue GAMMA=   2.5495
  8.1319  4.9244  3.2320  2.5078  2.5078  1.8327  1.1348  1.0132  0.9465  0.9465
  0.8670

 Free energy of the ion-electron system (eV)
  ---------------------------------------------------
  alpha Z        PSCENC =         0.02803141
  Ewald energy   TEWEN  =       121.60235440
  -Hartree energ DENC   =      -515.32408721
  -exchange      EXHF   =         0.00000000
  -V(xc)+E(xc)   XCENC  =        33.61717338
  PAW double counting   =       561.60853619     -563.35245346
  entropy T*S    EENTRO =        -0.00000000
  eigenvalues    EBANDS =      -109.62301120
  atomic energy  EATOM  =       457.26981990
  Solvation  Ediel_sol  =         0.00000000
  ---------------------------------------------------
  free energy    TOTEN  =       -14.17363660 eV

  energy without entropy =      -14.17363660  energy(sigma->0) =      -14.17363660


--------------------------------------------------------------------------------------------------------




--------------------------------------- Iteration      1(  17)  ---------------------------------------


    POTLOK:  cpu time      0.1194: real time      0.1208
    SETDIJ:  cpu time      0.0521: real time      0.0524
     EDDAV:  cpu time      0.2415: real time      0.2446
       DOS:  cpu time      0.0006: real time      0.0006
    CHARGE:  cpu time      0.0362: real time      0.0367
    MIXING:  cpu time      0.0047: real time      0.0047
    --------------------------------------------
      LOOP:  cpu time      0.4547: real time      0.4599

 eigenvalue-minimisations  :    64
 total energy-change (2. order) :-0.1358769E-03  (-0.3752765E-06)
 number of electron       8.0000013 magnetization 
 augmentation part        0.6837518 magnetization 

 Broyden mixing:
  rms(total) = 0.10348E-03    rms(broyden)= 0.10336E-03
  rms(prec ) = 0.15010E-03
  weight for this iteration     100.00

 eigenvalues of (default mixing * dielectric matrix)
  average eigenvalue GAMMA=   2.6919
  8.8098  5.7042  3.8577  2.9471  2.4724  2.4724  1.1353  1.1353  0.9489  0.9489
  0.9981  0.8723

 Free energy of the ion-electron system (eV)
  ---------------------------------------------------
  alpha Z        PSCENC =         0.02803141
  Ewald energy   TEWEN  =       121.60235440
  -Hartree energ DENC   =      -515.32351966
  -exchange      EXHF   =         0.00000000
  -V(xc)+E(xc)   XCENC  =        33.61690092
  PAW double counting   =       561.67044191     -563.41430639
  entropy T*S    EENTRO =        -0.00000000
  eigenvalues    EBANDS =      -109.62349497
  atomic energy  EATOM  =       457.26981990
  Solvation  Ediel_sol  =         0.00000000
  ---------------------------------------------------
  free energy    TOTEN  =       -14.17377248 eV

  energy without entropy =      -14.17377248  energy(sigma->0) =      -14.17377248


--------------------------------------------------------------------------------------------------------




--------------------------------------- Iteration      1(  18)  ---------------------------------------


    POTLOK:  cpu time      0.1198: real time      0.1211
    SETDIJ:  cpu time      0.0520: real time      0.0523
     EDDAV:  cpu time      0.2412: real time      0.2441
       DOS:  cpu time      0.0007: real time      0.0007
    CHARGE:  cpu time      0.0361: real time      0.0365
    MIXING:  cpu time      0.0049: real time      0.0050
    --------------------------------------------
      LOOP:  cpu time      0.4547: real time      0.4597

 eigenvalue-minimisations  :    64
 total energy-change (2. order) :-0.4733941E-04  (-0.6586207E-07)
 number of electron       8.0000013 magnetization 
 augmentation part        0.6837472 magnetization 

 Broyden mixing:
  rms(total) = 0.77154E-04    rms(broyden)= 0.77148E-04
  rms(prec ) = 0.93233E-04
  weight for this iteration     100.00

 eigenvalues of (default mixing * dielectric matrix)
  average eigenvalue GAMMA=   2.6960
  9.1068  5.9279  4.1374  2.8789  2.4581  2.3062  2.3062  1.1251  0.9475  0.9475
  1.0252  1.0104  0.8707

 Free energy of the ion-electron system (eV)
  ---------------------------------------------------
  alpha Z        PSCENC =         0.02803141
  Ewald energy   TEWEN  =       121.60235440
  -Hartree energ DENC   =      -515.32549583
  -exchange      EXHF   =         0.00000000
  -V(xc)+E(xc)   XCENC  =        33.61690115
  PAW double counting   =       561.68696184     -563.43090002
  entropy T*S    EENTRO =        -0.00000000
  eigenvalues    EBANDS =      -109.62149268
  atomic energy  EATOM  =       457.26981990
  Solvation  Ediel_sol  =         0.00000000
  ---------------------------------------------------
  free energy    TOTEN  =       -14.17381982 eV

  energy without entropy =      -14.17381982  energy(sigma->0) =      -14.17381982


--------------------------------------------------------------------------------------------------------




--------------------------------------- Iteration      1(  19)  ---------------------------------------


    POTLOK:  cpu time      0.1198: real time      0.1212
    SETDIJ:  cpu time      0.0520: real time      0.0522
     EDDAV:  cpu time      0.1408: real time      0.1424
       DOS:  cpu time      0.0007: real time      0.0010
    CHARGE:  cpu time      0.0361: real time      0.0366
    MIXING:  cpu time      0.0044: real time      0.0045
    --------------------------------------------
      LOOP:  cpu time      0.3538: real time      0.3579

 eigenvalue-minimisations  :    32
 total energy-change (2. order) :-0.2131339E-04  (-0.2204109E-07)
 number of electron       8.0000013 magnetization 
 augmentation part        0.6837315 magnetization 

 Broyden mixing:
  rms(total) = 0.55226E-04    rms(broyden)= 0.55172E-04
  rms(prec ) = 0.62505E-04
  weight for this iteration     100.00

 eigenvalues of (default mixing * dielectric matrix)
  average eigenvalue GAMMA=   2.7579
  9.4198  6.5262  4.6115  3.3584  2.8489  2.4411  2.1861  1.3177  1.1300  0.9472
  0.9472  1.0034  1.0034  0.8702

 Free energy of the ion-electron system (eV)
  ---------------------------------------------------
  alpha Z        PSCENC =         0.02803141
  Ewald energy   TEWEN  =       121.60235440
  -Hartree energ DENC   =      -515.32914629
  -exchange      EXHF   =         0.00000000
  -V(xc)+E(xc)   XCENC  =        33.61709290
  PAW double counting   =       561.67884149     -563.42278979
  entropy T*S    EENTRO =        -0.00000000
  eigenvalues    EBANDS =      -109.61804516
  atomic energy  EATOM  =       457.26981990
  Solvation  Ediel_sol  =         0.00000000
  ---------------------------------------------------
  free energy    TOTEN  =       -14.17384113 eV

  energy without entropy =      -14.17384113  energy(sigma->0) =      -14.17384113


--------------------------------------------------------------------------------------------------------




--------------------------------------- Iteration      1(  20)  ---------------------------------------


    POTLOK:  cpu time      0.1219: real time      0.1236
    SETDIJ:  cpu time      0.0520: real time      0.0522
     EDDAV:  cpu time      0.2407: real time      0.2437
       DOS:  cpu time      0.0007: real time      0.0007
    CHARGE:  cpu time      0.0359: real time      0.0367
    MIXING:  cpu time      0.0048: real time      0.0048
    --------------------------------------------
      LOOP:  cpu time      0.4559: real time      0.4617

 eigenvalue-minimisations  :    64
 total energy-change (2. order) :-0.8489342E-05  (-0.1177706E-07)
 number of electron       8.0000013 magnetization 
 augmentation part        0.6837365 magnetization 

 Broyden mixing:
  rms(total) = 0.14649E-04    rms(broyden)= 0.14639E-04
  rms(prec ) = 0.19313E-04
  weight for this iteration     100.00

 eigenvalues of (default mixing * dielectric matrix)
  average eigenvalue GAMMA=   2.7886
  9.6184  6.8661  4.8583  3.6179  2.6992  2.6992  2.4858  2.0208  1.1362  0.8714
  0.9478  0.9478  1.0330  1.0330  0.9942

 Free energy of the ion-electron system (eV)
  ---------------------------------------------------
  alpha Z        PSCENC =         0.02803141
  Ewald energy   TEWEN  =       121.60235440
  -Hartree energ DENC   =      -515.32840233
  -exchange      EXHF   =         0.00000000
  -V(xc)+E(xc)   XCENC  =        33.61704219
  PAW double counting   =       561.67248719     -563.41642830
  entropy T*S    EENTRO =        -0.00000000
  eigenvalues    EBANDS =      -109.61875409
  atomic energy  EATOM  =       457.26981990
  Solvation  Ediel_sol  =         0.00000000
  ---------------------------------------------------
  free energy    TOTEN  =       -14.17384962 eV

  energy without entropy =      -14.17384962  energy(sigma->0) =      -14.17384962


--------------------------------------------------------------------------------------------------------




--------------------------------------- Iteration      1(  21)  ---------------------------------------


    POTLOK:  cpu time      0.1223: real time      0.1236
    SETDIJ:  cpu time      0.0520: real time      0.0522
     EDDAV:  cpu time      0.2391: real time      0.2419
       DOS:  cpu time      0.0007: real time      0.0007
    CHARGE:  cpu time      0.0356: real time      0.0364
    MIXING:  cpu time      0.0049: real time      0.0049
    --------------------------------------------
      LOOP:  cpu time      0.4547: real time      0.4598

 eigenvalue-minimisations  :    64
 total energy-change (2. order) :-0.2986212E-05  (-0.1219437E-08)
 number of electron       8.0000013 magnetization 
 augmentation part        0.6837374 magnetization 

 Broyden mixing:
  rms(total) = 0.87346E-05    rms(broyden)= 0.87326E-05
  rms(prec ) = 0.10674E-04
  weight for this iteration     100.00

 eigenvalues of (default mixing * dielectric matrix)
  average eigenvalue GAMMA=   2.7791
  9.6999  7.1285  5.0058  3.9688  2.9318  2.7142  2.4791  2.1832  1.4806  1.1281
  0.8709  0.9469  0.9469  0.9982  0.9982  0.9840

 Free energy of the ion-electron system (eV)
  ---------------------------------------------------
  alpha Z        PSCENC =         0.02803141
  Ewald energy   TEWEN  =       121.60235440
  -Hartree energ DENC   =      -515.32789656
  -exchange      EXHF   =         0.00000000
  -V(xc)+E(xc)   XCENC  =        33.61700772
  PAW double counting   =       561.67507154     -563.41900897
  entropy T*S    EENTRO =        -0.00000000
  eigenvalues    EBANDS =      -109.61923204
  atomic energy  EATOM  =       457.26981990
  Solvation  Ediel_sol  =         0.00000000
  ---------------------------------------------------
  free energy    TOTEN  =       -14.17385260 eV

  energy without entropy =      -14.17385260  energy(sigma->0) =      -14.17385260


--------------------------------------------------------------------------------------------------------




--------------------------------------- Iteration      1(  22)  ---------------------------------------


    POTLOK:  cpu time      0.1212: real time      0.1225
    SETDIJ:  cpu time      0.0520: real time      0.0524
     EDDAV:  cpu time      0.1417: real time      0.1436
       DOS:  cpu time      0.0008: real time      0.0008
    CHARGE:  cpu time      0.0359: real time      0.0366
    MIXING:  cpu time      0.0051: real time      0.0051
    --------------------------------------------
      LOOP:  cpu time      0.3567: real time      0.3610

 eigenvalue-minimisations  :    32
 total energy-change (2. order) :-0.8563784E-06  (-0.3781544E-09)
 number of electron       8.0000013 magnetization 
 augmentation part        0.6837375 magnetization 

 Broyden mixing:
  rms(total) = 0.50749E-05    rms(broyden)= 0.50726E-05
  rms(prec ) = 0.61701E-05
  weight for this iteration     100.00

 eigenvalues of (default mixing * dielectric matrix)
  average eigenvalue GAMMA=   2.8106
  9.7783  7.2887  5.2955  4.2781  3.3327  2.7847  2.4583  2.4583  2.0939  0.8708
  0.9476  0.9476  1.1440  0.9892  0.9892  1.0804  1.0437

 Free energy of the ion-electron system (eV)
  ---------------------------------------------------
  alpha Z        PSCENC =         0.02803141
  Ewald energy   TEWEN  =       121.60235440
  -Hartree energ DENC   =      -515.32774804
  -exchange      EXHF   =         0.00000000
  -V(xc)+E(xc)   XCENC  =        33.61699766
  PAW double counting   =       561.67498386     -563.41892226
  entropy T*S    EENTRO =        -0.00000000
  eigenvalues    EBANDS =      -109.61937038
  atomic energy  EATOM  =       457.26981990
  Solvation  Ediel_sol  =         0.00000000
  ---------------------------------------------------
  free energy    TOTEN  =       -14.17385346 eV

  energy without entropy =      -14.17385346  energy(sigma->0) =      -14.17385346


--------------------------------------------------------------------------------------------------------




--------------------------------------- Iteration      1(  23)  ---------------------------------------


    POTLOK:  cpu time      0.1206: real time      0.1225
    SETDIJ:  cpu time      0.0521: real time      0.0523
     EDDAV:  cpu time      0.2413: real time      0.2441
       DOS:  cpu time      0.0007: real time      0.0007
    CHARGE:  cpu time      0.0358: real time      0.0366
    MIXING:  cpu time      0.0058: real time      0.0059
    --------------------------------------------
      LOOP:  cpu time      0.4562: real time      0.4621

 eigenvalue-minimisations  :    64
 total energy-change (2. order) :-0.5782334E-06  (-0.2665050E-09)
 number of electron       8.0000013 magnetization 
 augmentation part        0.6837385 magnetization 

 Broyden mixing:
  rms(total) = 0.47330E-05    rms(broyden)= 0.47294E-05
  rms(prec ) = 0.52683E-05
  weight for this iteration     100.00

 eigenvalues of (default mixing * dielectric matrix)
  average eigenvalue GAMMA=   2.7983
  9.7883  7.3900  5.4289  4.4115  3.3388  2.7218  2.7218  2.4671  2.2026  1.9545
  1.1336  0.8711  0.9474  0.9474  1.0342  1.0342  0.9884  0.9884

 Free energy of the ion-electron system (eV)
  ---------------------------------------------------
  alpha Z        PSCENC =         0.02803141
  Ewald energy   TEWEN  =       121.60235440
  -Hartree energ DENC   =      -515.32762685
  -exchange      EXHF   =         0.00000000
  -V(xc)+E(xc)   XCENC  =        33.61698890
  PAW double counting   =       561.67492473     -563.41886214
  entropy T*S    EENTRO =        -0.00000000
  eigenvalues    EBANDS =      -109.61948439
  atomic energy  EATOM  =       457.26981990
  Solvation  Ediel_sol  =         0.00000000
  ---------------------------------------------------
  free energy    TOTEN  =       -14.17385404 eV

  energy without entropy =      -14.17385404  energy(sigma->0) =      -14.17385404


--------------------------------------------------------------------------------------------------------




--------------------------------------- Iteration      1(  24)  ---------------------------------------


    POTLOK:  cpu time      0.1238: real time      0.1251
    SETDIJ:  cpu time      0.0523: real time      0.0525
     EDDAV:  cpu time      0.2404: real time      0.2435
       DOS:  cpu time      0.0007: real time      0.0007
    CHARGE:  cpu time      0.0362: real time      0.0369
    MIXING:  cpu time      0.0057: real time      0.0058
    --------------------------------------------
      LOOP:  cpu time      0.4591: real time      0.4645

 eigenvalue-minimisations  :    64
 total energy-change (2. order) :-0.2670963E-06  (-0.9820589E-10)
 number of electron       8.0000013 magnetization 
 augmentation part        0.6837376 magnetization 

 Broyden mixing:
  rms(total) = 0.13549E-05    rms(broyden)= 0.13508E-05
  rms(prec ) = 0.16657E-05
  weight for this iteration     100.00

 eigenvalues of (default mixing * dielectric matrix)
  average eigenvalue GAMMA=   2.7876
  9.8201  7.5417  5.8585  4.6737  3.7530  2.8940  2.6812  2.4901  2.1519  1.9572
  1.1525  1.1525  0.9475  0.9475  0.8710  1.0866  1.0258  0.9969  0.9633

 Free energy of the ion-electron system (eV)
  ---------------------------------------------------
  alpha Z        PSCENC =         0.02803141
  Ewald energy   TEWEN  =       121.60235440
  -Hartree energ DENC   =      -515.32779272
  -exchange      EXHF   =         0.00000000
  -V(xc)+E(xc)   XCENC  =        33.61699934
  PAW double counting   =       561.67470452     -563.41864223
  entropy T*S    EENTRO =        -0.00000000
  eigenvalues    EBANDS =      -109.61932892
  atomic energy  EATOM  =       457.26981990
  Solvation  Ediel_sol  =         0.00000000
  ---------------------------------------------------
  free energy    TOTEN  =       -14.17385431 eV

  energy without entropy =      -14.17385431  energy(sigma->0) =      -14.17385431


--------------------------------------------------------------------------------------------------------




--------------------------------------- Iteration      1(  25)  ---------------------------------------


    POTLOK:  cpu time      0.1228: real time      0.1245
    SETDIJ:  cpu time      0.0521: real time      0.0523
     EDDAV:  cpu time      0.2412: real time      0.2440
       DOS:  cpu time      0.0007: real time      0.0010
    CHARGE:  cpu time      0.0359: real time      0.0363
    MIXING:  cpu time      0.0057: real time      0.0058
    --------------------------------------------
      LOOP:  cpu time      0.4584: real time      0.4639

 eigenvalue-minimisations  :    64
 total energy-change (2. order) :-0.7824519E-07  (-0.1196909E-10)
 number of electron       8.0000013 magnetization 
 augmentation part        0.6837379 magnetization 

 Broyden mixing:
  rms(total) = 0.56381E-06    rms(broyden)= 0.56345E-06
  rms(prec ) = 0.76097E-06
  weight for this iteration     100.00

 eigenvalues of (default mixing * dielectric matrix)
  average eigenvalue GAMMA=   2.8461
  9.8451  7.8131  6.4139  4.9417  4.0884  3.2562  2.7223  2.4822  2.4822  2.0654
  1.8088  0.8710  0.9475  0.9475  1.1209  1.0894  1.0417  1.0417  0.9815  0.9619

 Free energy of the ion-electron system (eV)
  ---------------------------------------------------
  alpha Z        PSCENC =         0.02803141
  Ewald energy   TEWEN  =       121.60235440
  -Hartree energ DENC   =      -515.32776097
  -exchange      EXHF   =         0.00000000
  -V(xc)+E(xc)   XCENC  =        33.61699732
  PAW double counting   =       561.67476764     -563.41870497
  entropy T*S    EENTRO =        -0.00000000
  eigenvalues    EBANDS =      -109.61935911
  atomic energy  EATOM  =       457.26981990
  Solvation  Ediel_sol  =         0.00000000
  ---------------------------------------------------
  free energy    TOTEN  =       -14.17385438 eV

  energy without entropy =      -14.17385438  energy(sigma->0) =      -14.17385438


--------------------------------------------------------------------------------------------------------




--------------------------------------- Iteration      1(  26)  ---------------------------------------


    POTLOK:  cpu time      0.1233: real time      0.1246
    SETDIJ:  cpu time      0.0521: real time      0.0523
     EDDAV:  cpu time      0.2396: real time      0.2422
       DOS:  cpu time      0.0008: real time      0.0008
    CHARGE:  cpu time      0.0357: real time      0.0366
    MIXING:  cpu time      0.0060: real time      0.0060
    --------------------------------------------
      LOOP:  cpu time      0.4573: real time      0.4625

 eigenvalue-minimisations  :    64
 total energy-change (2. order) :-0.8006521E-07  (-0.8476775E-11)
 number of electron       8.0000013 magnetization 
 augmentation part        0.6837377 magnetization 

 Broyden mixing:
  rms(total) = 0.64306E-06    rms(broyden)= 0.64277E-06
  rms(prec ) = 0.72228E-06
  weight for this iteration     100.00

 eigenvalues of (default mixing * dielectric matrix)
  average eigenvalue GAMMA=   2.8302
  9.8584  7.9925  6.6360  5.0972  4.1417  3.4652  2.7311  2.7311  2.4767  2.2067
  1.7448  1.4186  1.1396  0.9472  0.9472  0.8711  1.0907  1.0091  1.0091  0.9881
  0.9326

 Free energy of the ion-electron system (eV)
  ---------------------------------------------------
  alpha Z        PSCENC =         0.02803141
  Ewald energy   TEWEN  =       121.60235440
  -Hartree energ DENC   =      -515.32777651
  -exchange      EXHF   =         0.00000000
  -V(xc)+E(xc)   XCENC  =        33.61699828
  PAW double counting   =       561.67481781     -563.41875574
  entropy T*S    EENTRO =        -0.00000000
  eigenvalues    EBANDS =      -109.61934401
  atomic energy  EATOM  =       457.26981990
  Solvation  Ediel_sol  =         0.00000000
  ---------------------------------------------------
  free energy    TOTEN  =       -14.17385446 eV

  energy without entropy =      -14.17385446  energy(sigma->0) =      -14.17385446


--------------------------------------------------------------------------------------------------------




--------------------------------------- Iteration      1(  27)  ---------------------------------------


    POTLOK:  cpu time      0.1229: real time      0.1248
    SETDIJ:  cpu time      0.0521: real time      0.0523
     EDDAV:  cpu time      0.2415: real time      0.2442
       DOS:  cpu time      0.0006: real time      0.0006
    CHARGE:  cpu time      0.0361: real time      0.0368
    MIXING:  cpu time      0.0061: real time      0.0062
    --------------------------------------------
      LOOP:  cpu time      0.4593: real time      0.4649

 eigenvalue-minimisations  :    64
 total energy-change (2. order) :-0.1936291E-07  (-0.9531931E-11)
 number of electron       8.0000013 magnetization 
 augmentation part        0.6837378 magnetization 

 Broyden mixing:
  rms(total) = 0.25699E-06    rms(broyden)= 0.25679E-06
  rms(prec ) = 0.29348E-06
  weight for this iteration     100.00

 eigenvalues of (default mixing * dielectric matrix)
  average eigenvalue GAMMA=   2.8727
  9.8848  8.2149  6.9505  5.2519  4.4379  3.7166  3.1437  2.5854  2.5854  2.4263
  2.1866  1.7905  1.1343  1.1343  0.9473  0.9473  0.8711  1.0302  1.0302  1.0069
  0.9878  0.9364

 Free energy of the ion-electron system (eV)
  ---------------------------------------------------
  alpha Z        PSCENC =         0.02803141
  Ewald energy   TEWEN  =       121.60235440
  -Hartree energ DENC   =      -515.32775749
  -exchange      EXHF   =         0.00000000
  -V(xc)+E(xc)   XCENC  =        33.61699711
  PAW double counting   =       561.67482489     -563.41876275
  entropy T*S    EENTRO =        -0.00000000
  eigenvalues    EBANDS =      -109.61936196
  atomic energy  EATOM  =       457.26981990
  Solvation  Ediel_sol  =         0.00000000
  ---------------------------------------------------
  free energy    TOTEN  =       -14.17385448 eV

  energy without entropy =      -14.17385448  energy(sigma->0) =      -14.17385448


--------------------------------------------------------------------------------------------------------




--------------------------------------- Iteration      1(  28)  ---------------------------------------


    POTLOK:  cpu time      0.1236: real time      0.1254
    SETDIJ:  cpu time      0.0521: real time      0.0524
     EDDAV:  cpu time      0.2426: real time      0.2455
       DOS:  cpu time      0.0006: real time      0.0006
    --------------------------------------------
      LOOP:  cpu time      0.4189: real time      0.4238

 eigenvalue-minimisations  :    64
 total energy-change (2. order) :-0.7517997E-08  (-0.1260503E-10)
 number of electron       8.0000013 magnetization 
 augmentation part        0.6837378 magnetization 

 Free energy of the ion-electron system (eV)
  ---------------------------------------------------
  alpha Z        PSCENC =         0.02803141
  Ewald energy   TEWEN  =       121.60235440
  -Hartree energ DENC   =      -515.32775162
  -exchange      EXHF   =         0.00000000
  -V(xc)+E(xc)   XCENC  =        33.61699671
  PAW double counting   =       561.67481466     -563.41875243
  entropy T*S    EENTRO =        -0.00000000
  eigenvalues    EBANDS =      -109.61936751
  atomic energy  EATOM  =       457.26981990
  Solvation  Ediel_sol  =         0.00000000
  ---------------------------------------------------
  free energy    TOTEN  =       -14.17385449 eV

  energy without entropy =      -14.17385449  energy(sigma->0) =      -14.17385449


--------------------------------------------------------------------------------------------------------




 average (electrostatic) potential at core
  the test charge radii are     0.5201  0.7215
  (the norm of the test charge is              1.0000)
       1 -44.8389       2 -44.8369       3 -80.7504



 E-fermi :  -7.1086     XC(G=0):  -0.1037     alpha+bet : -0.0163

 val. band max:       -7.1711714199   @ k =   0.0000   0.0000   0.0000
 cond. band min:      -1.0688230599   @ k =   0.0000   0.0000   0.0000
 fundamental gap:      6.1023483599
 Fermi energy:        -7.1085719161

 k-point     1 :       0.0000    0.0000    0.0000
  band No.  band energies     occupation 
      1     -25.3335      2.00000
      2     -13.0426      2.00000
      3      -9.2623      2.00000
      4      -7.1712      2.00000
      5      -1.0688      0.00000
      6       0.0125      0.00000
      7       0.1974      0.00000
      8       0.2976      0.00000
      9       0.3128      0.00000
     10       0.3430      0.00000
     11       0.3500      0.00000
     12       0.4637      0.00000
     13       0.4975      0.00000
     14       0.6014      0.00000
     15       0.6232      0.00000
     16       0.7083      0.00000


--------------------------------------------------------------------------------------------------------


 soft charge-density along one line, spin component           1
         0         1         2         3         4         5         6         7         8         9
 total charge-density along one line

 pseudopotential strength for first ion, spin component:           1
 -2.379  -4.110  -0.023   0.000   0.002
 -4.110  -7.012  -0.042   0.000   0.005
 -0.023  -0.042  -0.283  -0.000  -0.005
  0.000   0.000  -0.000  -0.327   0.000
  0.002   0.005  -0.005   0.000  -0.325
 total augmentation occupancy for first ion, spin component:           1
  3.966  -0.866   0.708  -0.000  -0.104
 -0.866   0.236  -0.151   0.000   0.027
  0.708  -0.151   0.127  -0.000  -0.017
 -0.000   0.000  -0.000   0.038  -0.000
 -0.104   0.027  -0.017  -0.000   0.027


------------------------ aborting loop because EDIFF is reached ----------------------------------------


    CHARGE:  cpu time      0.0365: real time      0.0370
    FORLOC:  cpu time      0.0038: real time      0.0039
    FORNL :  cpu time      0.0073: real time      0.0076
    STRESS:  cpu time      0.1710: real time      0.1729
    FORCOR:  cpu time      0.1115: real time      0.1125
    FORHAR:  cpu time      0.0290: real time      0.0296
    MIXING:  cpu time      0.0071: real time      0.0072
    OFIELD:  cpu time      0.0001: real time      0.0001

 ---------------------------------------------------------------------------------------------

         DFTD3 V3.0 Rev 1        
 DF rpbe      
 parameters
 rs18     =    1.0000
 alpha6   =   14.0000
 alpha8   =   16.0000
 k1-k3    =   16.0000    1.3333   -4.0000
 Edisp (eV)   -0.00134

 E6    (eV) :    -0.0013
 E8    (eV) :    -0.0001
 % E8        :  5.25
    FORVDW:  cpu time      0.0119: real time      0.0129

  FORCE on cell =-STRESS in cart. coord.  units (eV):
  Direction    XX          YY          ZZ          XY          YZ          ZX
  --------------------------------------------------------------------------------------
  Alpha Z     0.02803     0.02803     0.02803
  Ewald      57.31357    86.10536   -21.81653    22.24643    -0.00008     0.00018
  Hartree   174.88103   179.84459   160.60215     3.82856    -0.00002     0.00003
  E(xc)     -36.31412   -36.17191   -36.76924     0.11029    -0.00000     0.00000
  Local    -317.87112  -343.52000  -248.64876   -19.80161     0.00007    -0.00016
  n-local   -30.68117   -30.21123   -30.81351     0.36395     0.00000    -0.00000
  augment     6.44944     5.93758     8.08174    -0.39610     0.00000    -0.00000
  Kinetic   145.44707   137.28056   168.50219    -6.32537     0.00002    -0.00005
  Fock        0.00000     0.00000     0.00000     0.00000     0.00000     0.00000
  vdW         0.00263     0.00800    -0.00000     0.00416     0.00000     0.00000
  -------------------------------------------------------------------------------------
  Total      -0.74464    -0.69902    -0.83394     0.03031    -0.00000     0.00000
  in kB      -0.14913    -0.13999    -0.16702     0.00607    -0.00000     0.00000
  external pressure =       -0.15 kB  Pullay stress =        0.00 kB


 VOLUME and BASIS-vectors are now :
 -----------------------------------------------------------------------------
  energy-cutoff  :      400.00
  volume of cell :     8000.00
      direct lattice vectors                 reciprocal lattice vectors
    20.000000000  0.000000000  0.000000000     0.050000000  0.000000000  0.000000000
     0.000000000 20.000000000  0.000000000     0.000000000  0.050000000  0.000000000
     0.000000000  0.000000000 20.000000000     0.000000000  0.000000000  0.050000000

  length of vectors
    20.000000000 20.000000000 20.000000000     0.050000000  0.050000000  0.050000000


 FORCES acting on ions
    electron-ion (+dipol)            ewald-force                    non-local-force                 convergence-correction
 -----------------------------------------------------------------------------------------------
   -.108E+02 0.871E+02 -.142E-03   0.118E+02 -.953E+02 0.156E-03   -.105E+01 0.819E+01 -.135E-04   -.257E-07 -.813E-06 -.223E-09
   -.790E+02 -.382E+02 -.158E-03   0.865E+02 0.418E+02 0.172E-03   -.745E+01 -.356E+01 -.149E-04   0.674E-06 0.461E-06 -.270E-09
   0.552E+02 -.300E+02 0.175E-03   -.983E+02 0.536E+02 -.328E-03   0.432E+02 -.235E+02 0.144E-03   -.169E-05 0.779E-06 -.436E-08
 -----------------------------------------------------------------------------------------------
   -.347E+02 0.189E+02 -.125E-03   -.142E-13 0.000E+00 0.412E-17   0.347E+02 -.189E+02 0.116E-03   -.104E-05 0.427E-06 -.485E-08


 POSITION                                       TOTAL-FORCE (eV/Angst)
 -----------------------------------------------------------------------------------
      9.80755      9.62347     10.00000        -0.000123     -0.000855      0.000003
     10.54234     10.97263     10.00000        -0.000551     -0.000332      0.000003
      9.65010     10.58389     10.00000         0.000674      0.001186     -0.000006
 -----------------------------------------------------------------------------------
    total drift:                               -0.010041      0.004741     -0.000009


--------------------------------------------------------------------------------------------------------



  FREE ENERGIE OF THE ION-ELECTRON SYSTEM (eV)
  ---------------------------------------------------
  free  energy   TOTEN  =       -14.17519839 eV

  energy  without entropy=      -14.17519839  energy(sigma->0) =      -14.17519839



--------------------------------------------------------------------------------------------------------


    POTLOK:  cpu time      0.1759: real time      0.1774


--------------------------------------------------------------------------------------------------------




--------------------------------------------------------------------------------------------------------


    WAVPRE:  cpu time      0.0187: real time      0.0202
    FEWALD:  cpu time      0.0004: real time      0.0004
    ORTHCH:  cpu time      0.0115: real time      0.0117
     LOOP+:  cpu time     11.5057: real time     11.6572


--------------------------------------- Ionic step        2  -------------------------------------------




--------------------------------------- Iteration      2(   1)  ---------------------------------------


    POTLOK:  cpu time      0.1231: real time      0.1247
    SETDIJ:  cpu time      0.0521: real time      0.0523
     EDDAV:  cpu time      0.2442: real time      0.2469
       DOS:  cpu time      0.0007: real time      0.0010
    CHARGE:  cpu time      0.0362: real time      0.0368
    MIXING:  cpu time      0.0029: real time      0.0029
    --------------------------------------------
      LOOP:  cpu time      0.4591: real time      0.4647

 eigenvalue-minimisations  :    64
 total energy-change (2. order) : 0.3181644E-06  (-0.2867615E-05)
 number of electron       8.0000013 magnetization 
 augmentation part        0.6837357 magnetization 

 Broyden mixing:
  rms(total) = 0.10960E-03    rms(broyden)= 0.10723E-03
  rms(prec ) = 0.11287E-03
  weight for this iteration     100.00

 Free energy of the ion-electron system (eV)
  ---------------------------------------------------
  alpha Z        PSCENC =         0.02803141
  Ewald energy   TEWEN  =       121.60159422
  -Hartree energ DENC   =      -515.32733753
  -exchange      EXHF   =         0.00000000
  -V(xc)+E(xc)   XCENC  =        33.61697584
  PAW double counting   =       561.67480182     -563.41873953
  entropy T*S    EENTRO =        -0.00000000
  eigenvalues    EBANDS =      -109.61900029
  atomic energy  EATOM  =       457.26981990
  Solvation  Ediel_sol  =         0.00000000
  ---------------------------------------------------
  free energy    TOTEN  =       -14.17385417 eV

  energy without entropy =      -14.17385417  energy(sigma->0) =      -14.17385417


--------------------------------------------------------------------------------------------------------




--------------------------------------- Iteration      2(   2)  ---------------------------------------


    POTLOK:  cpu time      0.1241: real time      0.1261
    SETDIJ:  cpu time      0.0526: real time      0.0528
     EDDAV:  cpu time      0.2410: real time      0.2437
       DOS:  cpu time      0.0004: real time      0.0004
    CHARGE:  cpu time      0.0359: real time      0.0366
    MIXING:  cpu time      0.0028: real time      0.0029
    --------------------------------------------
      LOOP:  cpu time      0.4568: real time      0.4624

 eigenvalue-minimisations  :    64
 total energy-change (2. order) :-0.3743367E-08  (-0.4489166E-07)
 number of electron       8.0000013 magnetization 
 augmentation part        0.6837365 magnetization 

 Broyden mixing:
  rms(total) = 0.72258E-04    rms(broyden)= 0.71951E-04
  rms(prec ) = 0.75136E-04
  weight for this iteration     100.00

 eigenvalues of (default mixing * dielectric matrix)
  average eigenvalue GAMMA=   1.2893
  1.2893

 Free energy of the ion-electron system (eV)
  ---------------------------------------------------
  alpha Z        PSCENC =         0.02803141
  Ewald energy   TEWEN  =       121.60159422
  -Hartree energ DENC   =      -515.32719781
  -exchange      EXHF   =         0.00000000
  -V(xc)+E(xc)   XCENC  =        33.61696897
  PAW double counting   =       561.67377010     -563.41770557
  entropy T*S    EENTRO =        -0.00000000
  eigenvalues    EBANDS =      -109.61913538
  atomic energy  EATOM  =       457.26981990
  Solvation  Ediel_sol  =         0.00000000
  ---------------------------------------------------
  free energy    TOTEN  =       -14.17385417 eV

  energy without entropy =      -14.17385417  energy(sigma->0) =      -14.17385417


--------------------------------------------------------------------------------------------------------




--------------------------------------- Iteration      2(   3)  ---------------------------------------


    POTLOK:  cpu time      0.1227: real time      0.1244
    SETDIJ:  cpu time      0.0523: real time      0.0526
     EDDAV:  cpu time      0.1878: real time      0.1901
       DOS:  cpu time      0.0003: real time      0.0003
    --------------------------------------------
      LOOP:  cpu time      0.3632: real time      0.3676

 eigenvalue-minimisations  :    48
 total energy-change (2. order) : 0.2272600E-08  (-0.1922942E-08)
 number of electron       8.0000013 magnetization 
 augmentation part        0.6837365 magnetization 

 Free energy of the ion-electron system (eV)
  ---------------------------------------------------
  alpha Z        PSCENC =         0.02803141
  Ewald energy   TEWEN  =       121.60159422
  -Hartree energ DENC   =      -515.32716786
  -exchange      EXHF   =         0.00000000
  -V(xc)+E(xc)   XCENC  =        33.61696754
  PAW double counting   =       561.67303601     -563.41697161
  entropy T*S    EENTRO =        -0.00000000
  eigenvalues    EBANDS =      -109.61916378
  atomic energy  EATOM  =       457.26981990
  Solvation  Ediel_sol  =         0.00000000
  ---------------------------------------------------
  free energy    TOTEN  =       -14.17385417 eV

  energy without entropy =      -14.17385417  energy(sigma->0) =      -14.17385417


--------------------------------------------------------------------------------------------------------




 average (electrostatic) potential at core
  the test charge radii are     0.5201  0.7215
  (the norm of the test charge is              1.0000)
       1 -44.8378       2 -44.8379       3 -80.7503



 E-fermi :  -7.1084     XC(G=0):  -0.1037     alpha+bet : -0.0163

 val. band max:       -7.1711620657   @ k =   0.0000   0.0000   0.0000
 cond. band min:      -1.0688272795   @ k =   0.0000   0.0000   0.0000
 fundamental gap:      6.1023347862
 Fermi energy:        -7.1083670658

 k-point     1 :       0.0000    0.0000    0.0000
  band No.  band energies     occupation 
      1     -25.3335      2.00000
      2     -13.0426      2.00000
      3      -9.2623      2.00000
      4      -7.1712      2.00000
      5      -1.0688      0.00000
      6       0.0125      0.00000
      7       0.1975      0.00000
      8       0.2977      0.00000
      9       0.3127      0.00000
     10       0.3430      0.00000
     11       0.3502      0.00000
     12       0.4637      0.00000
     13       0.4974      0.00000
     14       0.6014      0.00000
     15       0.6230      0.00000
     16       0.7086      0.00000


--------------------------------------------------------------------------------------------------------


 soft charge-density along one line, spin component           1
         0         1         2         3         4         5         6         7         8         9
 total charge-density along one line

 pseudopotential strength for first ion, spin component:           1
 -2.379  -4.110  -0.023   0.000   0.002
 -4.110  -7.012  -0.042   0.000   0.005
 -0.023  -0.042  -0.283  -0.000  -0.005
  0.000   0.000  -0.000  -0.327   0.000
  0.002   0.005  -0.005   0.000  -0.325
 total augmentation occupancy for first ion, spin component:           1
  3.966  -0.866   0.707  -0.000  -0.104
 -0.866   0.236  -0.151   0.000   0.027
  0.707  -0.151   0.126  -0.000  -0.017
 -0.000   0.000  -0.000   0.038  -0.000
 -0.104   0.027  -0.017  -0.000   0.027


------------------------ aborting loop because EDIFF is reached ----------------------------------------


    CHARGE:  cpu time      0.0357: real time      0.0369
    FORLOC:  cpu time      0.0037: real time      0.0037
    FORNL :  cpu time      0.0070: real time      0.0070
    STRESS:  cpu time      0.1716: real time      0.1733
    FORCOR:  cpu time      0.1114: real time      0.1123
    FORHAR:  cpu time      0.0285: real time      0.0287
    MIXING:  cpu time      0.0037: real time      0.0037
    OFIELD:  cpu time      0.0000: real time      0.0000

 ---------------------------------------------------------------------------------------------

         DFTD3 V3.0 Rev 1        
 Edisp (eV)   -0.00134

 E6    (eV) :    -0.0013
 E8    (eV) :    -0.0001
 % E8        :  5.25
    FORVDW:  cpu time      0.0082: real time      0.0083

  FORCE on cell =-STRESS in cart. coord.  units (eV):
  Direction    XX          YY          ZZ          XY          YZ          ZX
  --------------------------------------------------------------------------------------
  Alpha Z     0.02803     0.02803     0.02803
  Ewald      57.32091    86.09726   -21.81653    22.25237    -0.00010     0.00022
  Hartree   174.88049   179.84474   160.60194     3.82858    -0.00002     0.00004
  E(xc)     -36.31410   -36.17187   -36.76921     0.11029    -0.00000     0.00000
  Local    -317.87411  -343.51613  -248.64848   -19.80482     0.00009    -0.00019
  n-local   -30.68191   -30.21031   -30.81347     0.36340     0.00000    -0.00000
  augment     6.44935     5.93765     8.08173    -0.39616     0.00000    -0.00000
  Kinetic   145.44712   137.28016   168.50204    -6.32551     0.00003    -0.00006
  Fock        0.00000     0.00000     0.00000     0.00000     0.00000     0.00000
  vdW         0.00263     0.00800    -0.00000     0.00416     0.00000     0.00000
  -------------------------------------------------------------------------------------
  Total      -0.74158    -0.70247    -0.83396     0.03230    -0.00000     0.00000
  in kB      -0.14852    -0.14069    -0.16702     0.00647    -0.00000     0.00000
  external pressure =       -0.15 kB  Pullay stress =        0.00 kB


 VOLUME and BASIS-vectors are now :
 -----------------------------------------------------------------------------
  energy-cutoff  :      400.00
  volume of cell :     8000.00
      direct lattice vectors                 reciprocal lattice vectors
    20.000000000  0.000000000  0.000000000     0.050000000  0.000000000  0.000000000
     0.000000000 20.000000000  0.000000000     0.000000000  0.050000000  0.000000000
     0.000000000  0.000000000 20.000000000     0.000000000  0.000000000  0.050000000

  length of vectors
    20.000000000 20.000000000 20.000000000     0.050000000  0.050000000  0.050000000


 FORCES acting on ions
    electron-ion (+dipol)            ewald-force                    non-local-force                 convergence-correction
 -----------------------------------------------------------------------------------------------
   -.108E+02 0.871E+02 -.178E-03   0.118E+02 -.953E+02 0.194E-03   -.105E+01 0.819E+01 -.169E-04   -.263E-04 0.199E-04 0.309E-06
   -.791E+02 -.382E+02 -.194E-03   0.865E+02 0.418E+02 0.212E-03   -.745E+01 -.356E+01 -.184E-04   0.275E-04 -.128E-04 0.311E-06
   0.552E+02 -.300E+02 0.215E-03   -.983E+02 0.535E+02 -.406E-03   0.432E+02 -.235E+02 0.178E-03   -.589E-03 -.112E-02 0.483E-05
 -----------------------------------------------------------------------------------------------
   -.347E+02 0.189E+02 -.157E-03   0.000E+00 0.000E+00 0.407E-17   0.347E+02 -.189E+02 0.142E-03   -.588E-03 -.111E-02 0.545E-05


 POSITION                                       TOTAL-FORCE (eV/Angst)
 -----------------------------------------------------------------------------------
      9.80755      9.62343     10.00000        -0.000792      0.003585      0.000003
     10.54232     10.97262     10.00000         0.003213      0.001251      0.000003
      9.65013     10.58395     10.00000        -0.002421     -0.004836     -0.000006
 -----------------------------------------------------------------------------------
    total drift:                               -0.010014      0.004751     -0.000009


--------------------------------------------------------------------------------------------------------



  FREE ENERGIE OF THE ION-ELECTRON SYSTEM (eV)
  ---------------------------------------------------
  free  energy   TOTEN  =       -14.17519815 eV

  energy  without entropy=      -14.17519815  energy(sigma->0) =      -14.17519815

 d Force =-0.2291332E-06[-0.604E-06, 0.146E-06]  d Energy =-0.2431148E-06 0.140E-07
 d Force = 0.7601813E-03[ 0.759E-03, 0.761E-03]  d Ewald  = 0.7601813E-03 0.259E-10


--------------------------------------------------------------------------------------------------------


    POTLOK:  cpu time      0.1746: real time      0.1784


--------------------------------------------------------------------------------------------------------


 Steepest descent step on ions:
 trial-energy change:    0.000000  1 .order    0.000000   -0.000000    0.000001
  (g-gl).g = 0.146E-06      g.g   = 0.146E-06  gl.gl    = 0.000E+00
 g(Force)  = 0.146E-06   g(Stress)= 0.000E+00 ortho     = 0.000E+00
 gamma     =   0.00000
 trial     =   1.00000
 opt step  =   0.19437  (harmonic =   0.19437) maximal distance =0.00001113
 next E    =   -14.175198   (d E  =  -0.00000)


--------------------------------------------------------------------------------------------------------


    WAVPRE:  cpu time      0.0181: real time      0.0196
    FEWALD:  cpu time      0.0003: real time      0.0003
    ORTHCH:  cpu time      0.0119: real time      0.0121
     LOOP+:  cpu time      1.9079: real time      1.9336


--------------------------------------- Ionic step        3  -------------------------------------------




--------------------------------------- Iteration      3(   1)  ---------------------------------------


    POTLOK:  cpu time      0.1220: real time      0.1237
    SETDIJ:  cpu time      0.0522: real time      0.0525
     EDDAV:  cpu time      0.2386: real time      0.2412
       DOS:  cpu time      0.0004: real time      0.0004
    CHARGE:  cpu time      0.0358: real time      0.0365
    MIXING:  cpu time      0.0027: real time      0.0027
    --------------------------------------------
      LOOP:  cpu time      0.4517: real time      0.4570

 eigenvalue-minimisations  :    64
 total energy-change (2. order) :-0.2978815E-06  (-0.1890113E-05)
 number of electron       8.0000013 magnetization 
 augmentation part        0.6837384 magnetization 

 Broyden mixing:
  rms(total) = 0.85948E-04    rms(broyden)= 0.83999E-04
  rms(prec ) = 0.88382E-04
  weight for this iteration     100.00

 Free energy of the ion-electron system (eV)
  ---------------------------------------------------
  alpha Z        PSCENC =         0.02803141
  Ewald energy   TEWEN  =       121.60220645
  -Hartree energ DENC   =      -515.32750582
  -exchange      EXHF   =         0.00000000
  -V(xc)+E(xc)   XCENC  =        33.61698469
  PAW double counting   =       561.67261352     -563.41654927
  entropy T*S    EENTRO =        -0.00000000
  eigenvalues    EBANDS =      -109.61945536
  atomic energy  EATOM  =       457.26981990
  Solvation  Ediel_sol  =         0.00000000
  ---------------------------------------------------
  free energy    TOTEN  =       -14.17385447 eV

  energy without entropy =      -14.17385447  energy(sigma->0) =      -14.17385447


--------------------------------------------------------------------------------------------------------




--------------------------------------- Iteration      3(   2)  ---------------------------------------


    POTLOK:  cpu time      0.1223: real time      0.1246
    SETDIJ:  cpu time      0.0523: real time      0.0525
     EDDAV:  cpu time      0.1896: real time      0.1918
       DOS:  cpu time      0.0003: real time      0.0003
    CHARGE:  cpu time      0.0357: real time      0.0365
    MIXING:  cpu time      0.0029: real time      0.0030
    --------------------------------------------
      LOOP:  cpu time      0.4032: real time      0.4086

 eigenvalue-minimisations  :    48
 total energy-change (2. order) :-0.1891237E-07  (-0.3527224E-07)
 number of electron       8.0000013 magnetization 
 augmentation part        0.6837375 magnetization 

 Broyden mixing:
  rms(total) = 0.59797E-04    rms(broyden)= 0.59499E-04
  rms(prec ) = 0.62310E-04
  weight for this iteration     100.00

 eigenvalues of (default mixing * dielectric matrix)
  average eigenvalue GAMMA=   1.0486
  1.0486

 Free energy of the ion-electron system (eV)
  ---------------------------------------------------
  alpha Z        PSCENC =         0.02803141
  Ewald energy   TEWEN  =       121.60220645
  -Hartree energ DENC   =      -515.32764450
  -exchange      EXHF   =         0.00000000
  -V(xc)+E(xc)   XCENC  =        33.61699138
  PAW double counting   =       561.67344997     -563.41738741
  entropy T*S    EENTRO =        -0.00000000
  eigenvalues    EBANDS =      -109.61932169
  atomic energy  EATOM  =       457.26981990
  Solvation  Ediel_sol  =         0.00000000
  ---------------------------------------------------
  free energy    TOTEN  =       -14.17385449 eV

  energy without entropy =      -14.17385449  energy(sigma->0) =      -14.17385449


--------------------------------------------------------------------------------------------------------




--------------------------------------- Iteration      3(   3)  ---------------------------------------


    POTLOK:  cpu time      0.1232: real time      0.1248
    SETDIJ:  cpu time      0.0522: real time      0.0525
     EDDAV:  cpu time      0.2405: real time      0.2433
       DOS:  cpu time      0.0003: real time      0.0003
    --------------------------------------------
      LOOP:  cpu time      0.4163: real time      0.4218

 eigenvalue-minimisations  :    64
 total energy-change (2. order) : 0.8652705E-09  (-0.9929000E-09)
 number of electron       8.0000013 magnetization 
 augmentation part        0.6837375 magnetization 

 Free energy of the ion-electron system (eV)
  ---------------------------------------------------
  alpha Z        PSCENC =         0.02803141
  Ewald energy   TEWEN  =       121.60220645
  -Hartree energ DENC   =      -515.32763182
  -exchange      EXHF   =         0.00000000
  -V(xc)+E(xc)   XCENC  =        33.61699062
  PAW double counting   =       561.67382359     -563.41776073
  entropy T*S    EENTRO =        -0.00000000
  eigenvalues    EBANDS =      -109.61933391
  atomic energy  EATOM  =       457.26981990
  Solvation  Ediel_sol  =         0.00000000
  ---------------------------------------------------
  free energy    TOTEN  =       -14.17385449 eV

  energy without entropy =      -14.17385449  energy(sigma->0) =      -14.17385449


--------------------------------------------------------------------------------------------------------




 average (electrostatic) potential at core
  the test charge radii are     0.5201  0.7215
  (the norm of the test charge is              1.0000)
       1 -44.8388       2 -44.8370       3 -80.7504



 E-fermi :  -7.1086     XC(G=0):  -0.1038     alpha+bet : -0.0163

 val. band max:       -7.1711692107   @ k =   0.0000   0.0000   0.0000
 cond. band min:      -1.0688150712   @ k =   0.0000   0.0000   0.0000
 fundamental gap:      6.1023541395
 Fermi energy:        -7.1085652222

 k-point     1 :       0.0000    0.0000    0.0000
  band No.  band energies     occupation 
      1     -25.3335      2.00000
      2     -13.0426      2.00000
      3      -9.2623      2.00000
      4      -7.1712      2.00000
      5      -1.0688      0.00000
      6       0.0124      0.00000
      7       0.1975      0.00000
      8       0.2976      0.00000
      9       0.3128      0.00000
     10       0.3430      0.00000
     11       0.3499      0.00000
     12       0.4636      0.00000
     13       0.4972      0.00000
     14       0.6013      0.00000
     15       0.6230      0.00000
     16       0.7083      0.00000


--------------------------------------------------------------------------------------------------------


 soft charge-density along one line, spin component           1
         0         1         2         3         4         5         6         7         8         9
 total charge-density along one line

 pseudopotential strength for first ion, spin component:           1
 -2.379  -4.110  -0.023   0.000   0.002
 -4.110  -7.012  -0.042   0.000   0.005
 -0.023  -0.042  -0.283  -0.000  -0.005
  0.000   0.000  -0.000  -0.327   0.000
  0.002   0.005  -0.005   0.000  -0.325
 total augmentation occupancy for first ion, spin component:           1
  3.966  -0.866   0.708  -0.000  -0.104
 -0.866   0.236  -0.151   0.000   0.027
  0.708  -0.151   0.127  -0.000  -0.017
 -0.000   0.000  -0.000   0.038  -0.000
 -0.104   0.027  -0.017  -0.000   0.027


------------------------ aborting loop because EDIFF is reached ----------------------------------------


    CHARGE:  cpu time      0.0354: real time      0.0366
    FORLOC:  cpu time      0.0037: real time      0.0037
    FORNL :  cpu time      0.0070: real time      0.0071
    STRESS:  cpu time      0.1719: real time      0.1736
    FORCOR:  cpu time      0.1110: real time      0.1120
    FORHAR:  cpu time      0.0283: real time      0.0286
    MIXING:  cpu time      0.0037: real time      0.0038
    OFIELD:  cpu time      0.0000: real time      0.0000

 ---------------------------------------------------------------------------------------------

         DFTD3 V3.0 Rev 1        
 Edisp (eV)   -0.00134

 E6    (eV) :    -0.0013
 E8    (eV) :    -0.0001
 % E8        :  5.25
    FORVDW:  cpu time      0.0082: real time      0.0083

  FORCE on cell =-STRESS in cart. coord.  units (eV):
  Direction    XX          YY          ZZ          XY          YZ          ZX
  --------------------------------------------------------------------------------------
  Alpha Z     0.02803     0.02803     0.02803
  Ewald      57.31500    86.10378   -21.81653    22.24759    -0.00009     0.00019
  Hartree   174.88085   179.84469   160.60211     3.82852    -0.00002     0.00003
  E(xc)     -36.31411   -36.17190   -36.76924     0.11029    -0.00000     0.00000
  Local    -317.87159  -343.51937  -248.64870   -19.80216     0.00008    -0.00016
  n-local   -30.68131   -30.21105   -30.81350     0.36384     0.00000    -0.00000
  augment     6.44944     5.93757     8.08174    -0.39610     0.00000    -0.00000
  Kinetic   145.44722   137.28034   168.50216    -6.32531     0.00003    -0.00005
  Fock        0.00000     0.00000     0.00000     0.00000     0.00000     0.00000
  vdW         0.00263     0.00800    -0.00000     0.00416     0.00000     0.00000
  -------------------------------------------------------------------------------------
  Total      -0.74384    -0.69990    -0.83393     0.03082    -0.00000     0.00000
  in kB      -0.14897    -0.14017    -0.16701     0.00617    -0.00000     0.00000
  external pressure =       -0.15 kB  Pullay stress =        0.00 kB


 VOLUME and BASIS-vectors are now :
 -----------------------------------------------------------------------------
  energy-cutoff  :      400.00
  volume of cell :     8000.00
      direct lattice vectors                 reciprocal lattice vectors
    20.000000000  0.000000000  0.000000000     0.050000000  0.000000000  0.000000000
     0.000000000 20.000000000  0.000000000     0.000000000  0.050000000  0.000000000
     0.000000000  0.000000000 20.000000000     0.000000000  0.000000000  0.050000000

  length of vectors
    20.000000000 20.000000000 20.000000000     0.050000000  0.050000000  0.050000000


 FORCES acting on ions
    electron-ion (+dipol)            ewald-force                    non-local-force                 convergence-correction
 -----------------------------------------------------------------------------------------------
   -.108E+02 0.871E+02 -.149E-03   0.118E+02 -.953E+02 0.163E-03   -.105E+01 0.819E+01 -.141E-04   0.386E-04 -.231E-04 -.275E-06
   -.791E+02 -.382E+02 -.164E-03   0.865E+02 0.418E+02 0.180E-03   -.745E+01 -.356E+01 -.155E-04   -.349E-04 0.233E-04 -.276E-06
   0.552E+02 -.300E+02 0.187E-03   -.983E+02 0.536E+02 -.343E-03   0.432E+02 -.235E+02 0.153E-03   0.774E-03 0.145E-02 -.492E-05
 -----------------------------------------------------------------------------------------------
   -.347E+02 0.189E+02 -.126E-03   0.142E-13 0.000E+00 0.407E-17   0.347E+02 -.189E+02 0.123E-03   0.778E-03 0.145E-02 -.548E-05


 POSITION                                       TOTAL-FORCE (eV/Angst)
 -----------------------------------------------------------------------------------
      9.80755      9.62347     10.00000        -0.000251      0.000062      0.000003
     10.54234     10.97263     10.00000         0.000230      0.000007      0.000003
      9.65011     10.58390     10.00000         0.000021     -0.000070     -0.000006
 -----------------------------------------------------------------------------------
    total drift:                               -0.010078      0.004685     -0.000009


--------------------------------------------------------------------------------------------------------



  FREE ENERGIE OF THE ION-ELECTRON SYSTEM (eV)
  ---------------------------------------------------
  free  energy   TOTEN  =       -14.17519840 eV

  energy  without entropy=      -14.17519840  energy(sigma->0) =      -14.17519840

 d Force = 0.2475679E-06[ 0.854E-08, 0.487E-06]  d Energy = 0.2528620E-06-0.529E-08
 d Force =-0.6122342E-03[-0.613E-03,-0.611E-03]  d Ewald  =-0.6122342E-03-0.116E-10


--------------------------------------------------------------------------------------------------------


    POTLOK:  cpu time      0.1760: real time      0.1774


--------------------------------------------------------------------------------------------------------




--------------------------------------------------------------------------------------------------------


  
 reached required accuracy - stopping structural energy minimisation
     LOOP+:  cpu time      1.8719: real time      1.8948
    4ORBIT:  cpu time      0.0000: real time      0.0000

 total amount of memory used by VASP MPI-rank0    67590. kBytes
=======================================================================

   base      :      30000. kBytes
   nonl-proj :       6392. kBytes
   fftplans  :      12303. kBytes
   grid      :      18311. kBytes
   one-center:          3. kBytes
   wavefun   :        581. kBytes

  
  
 General timing and accounting informations for this job:
 ========================================================
  
                  Total CPU time used (sec):       17.314
                            User time (sec):       15.668
                          System time (sec):        1.646
                         Elapsed time (sec):       19.760
  
                   Maximum memory used (kb):      306792.
                   Average memory used (kb):          N/A
  
                          Minor page faults:        89924
                          Major page faults:            2
                 Voluntary context switches:        19327
