Cu  O Pt                                
   1.0000000000000000     
    11.1887137964146977    0.0000000000000000    0.0000000000000007
    -5.5943568982073524    9.6897103833685563    0.0000000000000007
     0.0000000000000000    0.0000000000000000   41.1099595188816593
  Cu              O               Pt            
    12     1    84
Selective dynamics
Direct
  0.3333333333333357  0.1666666666666643  0.3585544345969893   F   F   F
  0.6666666666666643  0.8333333333333357  0.5807766568192108   F   F   F
  0.0000000000000000  0.0000000000000000  0.4696655457081036   F   F   F
  0.8333333333333357  0.6666666666666643  0.3585544345969893   F   F   F
  0.6666666666666643  0.3333333333333357  0.5807766568192108   F   F   F
  0.0000000000000000  0.5000000000000000  0.4696655457081036   F   F   F
  0.1666666666666643  0.8333333333333357  0.5807766568192108   F   F   F
  0.5000000000000000  0.0000000000000000  0.4696655457081036   F   F   F
  0.3333333333333357  0.6666666666666643  0.3585544345969893   F   F   F
  0.8333333333333357  0.1666666666666643  0.3585544345969893   F   F   F
  0.5000000000000000  0.5000000000000000  0.4696655457081036   F   F   F
  0.1666666666666643  0.3333333333333357  0.5807766568192108   F   F   F
  0.0841501817830927  0.4159216329692113  0.6643516515115191   T   T   T
  0.5833333333333357  0.9166666666666643  0.3585544345969893   F   F   F
  0.5833333333333357  0.4166666666666643  0.5252211012636536   F   F   F
  0.9166666666666643  0.0833333333333357  0.4141099901525465   F   F   F
  0.5833333333333357  0.4166666666666643  0.3585544345969893   F   F   F
  0.9166666666666643  0.0833333333333357  0.5807766568192108   F   F   F
  0.7500000000000000  0.2500000000000000  0.4696655457081036   F   F   F
  0.5833333333333357  0.1666666666666643  0.3585544345969893   F   F   F
  0.9166666666666643  0.3333333333333357  0.5807766568192108   F   F   F
  0.7437706117112328  0.2490024365807978  0.6353161549082202   T   T   T
  0.7500000000000000  0.5000000000000000  0.4696655457081036   F   F   F
  0.6666666666666643  0.0833333333333357  0.5807766568192108   F   F   F
  0.0000000000000000  0.2500000000000000  0.4696655457081036   F   F   F
  0.9969339498649183  0.2395604668142803  0.6362418859241208   T   T   T
  0.8333333333333357  0.4166666666666643  0.5252211012636536   F   F   F
  0.6666666666666643  0.0833333333333357  0.4141099901525465   F   F   F
  0.7465738397330947  0.4987414029283790  0.6359376358414869   T   T   T
  0.5833333333333357  0.1666666666666643  0.5252211012636536   F   F   F
  0.8333333333333357  0.4166666666666643  0.3585544345969893   F   F   F
  0.5029384996895315  0.5006927800942944  0.6367266982713938   T   T   T
  0.5833333333333357  0.9166666666666643  0.5252211012636536   F   F   F
  0.9166666666666643  0.3333333333333357  0.4141099901525465   F   F   F
  0.9166666666666643  0.5833333333333357  0.5807766568192108   F   F   F
  0.7500000000000000  0.7500000000000000  0.4696655457081036   F   F   F
  0.5833333333333357  0.6666666666666643  0.3585544345969893   F   F   F
  0.9166666666666643  0.8333333333333357  0.5807766568192108   F   F   F
  0.7500000000000000  0.0000000000000000  0.4696655457081036   F   F   F
  0.8333333333333357  0.9166666666666643  0.3585544345969893   F   F   F
  0.6666666666666643  0.5833333333333357  0.5807766568192108   F   F   F
  0.0000000000000000  0.7500000000000000  0.4696655457081036   F   F   F
  0.0013681886728409  0.7534875351870267  0.6359285342461519   T   T   T
  0.8333333333333357  0.9166666666666643  0.5252211012636536   F   F   F
  0.6666666666666643  0.5833333333333357  0.4141099901525465   F   F   F
  0.7469282068827352  0.9959326919313907  0.6357883154910576   T   T   T
  0.5833333333333357  0.6666666666666643  0.5252211012636536   F   F   F
  0.9166666666666643  0.8333333333333357  0.4141099901525465   F   F   F
  0.8333333333333357  0.6666666666666643  0.5252211012636536   F   F   F
  0.6666666666666643  0.8333333333333357  0.4141099901525465   F   F   F
  0.9993709862919952  0.9970523913958868  0.6367273560091599   T   T   T
  0.9166666666666643  0.5833333333333357  0.4141099901525465   F   F   F
  0.1666666666666643  0.0833333333333357  0.4141099901525465   F   F   F
  0.3333333333333357  0.4166666666666643  0.5252211012636536   F   F   F
  0.9942056827932111  0.5058873190733536  0.6370057933183286   T   T   T
  0.1666666666666643  0.8333333333333357  0.4141099901525465   F   F   F
  0.4998539901352125  0.0003290825001313  0.6370894460694244   T   T   T
  0.4166666666666643  0.3333333333333357  0.4141099901525465   F   F   F
  0.0833333333333357  0.1666666666666643  0.5252211012636536   F   F   F
  0.2604884297214066  0.5032168103394254  0.6362565302462535   T   T   T
  0.2523256731875664  0.2477607014494045  0.6357587746687123   T   T   T
  0.0833333333333357  0.4166666666666643  0.5252211012636536   F   F   F
  0.4166666666666643  0.0833333333333357  0.4141099901525465   F   F   F
  0.3333333333333357  0.6666666666666643  0.5252211012636536   F   F   F
  0.0833333333333357  0.4166666666666643  0.3585544345969893   F   F   F
  0.2500000000000000  0.2500000000000000  0.4696655457081036   F   F   F
  0.0833333333333357  0.1666666666666643  0.3585544345969893   F   F   F
  0.4166666666666643  0.3333333333333357  0.5807766568192108   F   F   F
  0.2500000000000000  0.5000000000000000  0.4696655457081036   F   F   F
  0.3333333333333357  0.4166666666666643  0.3585544345969893   F   F   F
  0.1666666666666643  0.0833333333333357  0.5807766568192108   F   F   F
  0.5000000000000000  0.2500000000000000  0.4696655457081036   F   F   F
  0.5012528161041692  0.2506251928040262  0.6360554962355434   T   T   T
  0.4166666666666643  0.0833333333333357  0.5807766568192108   F   F   F
  0.6666666666666643  0.3333333333333357  0.4141099901525465   F   F   F
  0.4166666666666643  0.8333333333333357  0.4141099901525465   F   F   F
  0.2494552266374949  0.9988050505305586  0.6360493391419439   T   T   T
  0.1666666666666643  0.3333333333333357  0.4141099901525465   F   F   F
  0.3333333333333357  0.1666666666666643  0.5252211012636536   F   F   F
  0.7490994017403588  0.7509476100095516  0.6362069143031061   T   T   T
  0.2511677755149221  0.7563616312069777  0.6353004404404122   T   T   T
  0.0833333333333357  0.9166666666666643  0.5252211012636536   F   F   F
  0.4166666666666643  0.5833333333333357  0.4141099901525465   F   F   F
  0.0833333333333357  0.9166666666666643  0.3585544345969893   F   F   F
  0.4166666666666643  0.5833333333333357  0.5807766568192108   F   F   F
  0.0833333333333357  0.6666666666666643  0.5252211012636536   F   F   F
  0.2500000000000000  0.7500000000000000  0.4696655457081036   F   F   F
  0.4166666666666643  0.8333333333333357  0.5807766568192108   F   F   F
  0.2500000000000000  0.0000000000000000  0.4696655457081036   F   F   F
  0.3333333333333357  0.9166666666666643  0.3585544345969893   F   F   F
  0.1666666666666643  0.5833333333333357  0.5807766568192108   F   F   F
  0.5000000000000000  0.7500000000000000  0.4696655457081036   F   F   F
  0.5041288193831073  0.7531512462632833  0.6357833970971210   T   T   T
  0.3333333333333357  0.9166666666666643  0.5252211012636536   F   F   F
  0.1666666666666643  0.5833333333333357  0.4141099901525465   F   F   F
  0.0833333333333357  0.6666666666666643  0.3585544345969893   F   F   F
  0.8333333333333357  0.1666666666666643  0.5252211012636536   F   F   F

  0.00000000E+00  0.00000000E+00  0.00000000E+00
  0.00000000E+00  0.00000000E+00  0.00000000E+00
  0.00000000E+00  0.00000000E+00  0.00000000E+00
  0.00000000E+00  0.00000000E+00  0.00000000E+00
  0.00000000E+00  0.00000000E+00  0.00000000E+00
  0.00000000E+00  0.00000000E+00  0.00000000E+00
  0.00000000E+00  0.00000000E+00  0.00000000E+00
  0.00000000E+00  0.00000000E+00  0.00000000E+00
  0.00000000E+00  0.00000000E+00  0.00000000E+00
  0.00000000E+00  0.00000000E+00  0.00000000E+00
  0.00000000E+00  0.00000000E+00  0.00000000E+00
  0.00000000E+00  0.00000000E+00  0.00000000E+00
  0.00000000E+00  0.00000000E+00  0.00000000E+00
  0.00000000E+00  0.00000000E+00  0.00000000E+00
  0.00000000E+00  0.00000000E+00  0.00000000E+00
  0.00000000E+00  0.00000000E+00  0.00000000E+00
  0.00000000E+00  0.00000000E+00  0.00000000E+00
  0.00000000E+00  0.00000000E+00  0.00000000E+00
  0.00000000E+00  0.00000000E+00  0.00000000E+00
  0.00000000E+00  0.00000000E+00  0.00000000E+00
  0.00000000E+00  0.00000000E+00  0.00000000E+00
  0.00000000E+00  0.00000000E+00  0.00000000E+00
  0.00000000E+00  0.00000000E+00  0.00000000E+00
  0.00000000E+00  0.00000000E+00  0.00000000E+00
  0.00000000E+00  0.00000000E+00  0.00000000E+00
  0.00000000E+00  0.00000000E+00  0.00000000E+00
  0.00000000E+00  0.00000000E+00  0.00000000E+00
  0.00000000E+00  0.00000000E+00  0.00000000E+00
  0.00000000E+00  0.00000000E+00  0.00000000E+00
  0.00000000E+00  0.00000000E+00  0.00000000E+00
  0.00000000E+00  0.00000000E+00  0.00000000E+00
  0.00000000E+00  0.00000000E+00  0.00000000E+00
  0.00000000E+00  0.00000000E+00  0.00000000E+00
  0.00000000E+00  0.00000000E+00  0.00000000E+00
  0.00000000E+00  0.00000000E+00  0.00000000E+00
  0.00000000E+00  0.00000000E+00  0.00000000E+00
  0.00000000E+00  0.00000000E+00  0.00000000E+00
  0.00000000E+00  0.00000000E+00  0.00000000E+00
  0.00000000E+00  0.00000000E+00  0.00000000E+00
  0.00000000E+00  0.00000000E+00  0.00000000E+00
  0.00000000E+00  0.00000000E+00  0.00000000E+00
  0.00000000E+00  0.00000000E+00  0.00000000E+00
  0.00000000E+00  0.00000000E+00  0.00000000E+00
  0.00000000E+00  0.00000000E+00  0.00000000E+00
  0.00000000E+00  0.00000000E+00  0.00000000E+00
  0.00000000E+00  0.00000000E+00  0.00000000E+00
  0.00000000E+00  0.00000000E+00  0.00000000E+00
  0.00000000E+00  0.00000000E+00  0.00000000E+00
  0.00000000E+00  0.00000000E+00  0.00000000E+00
  0.00000000E+00  0.00000000E+00  0.00000000E+00
  0.00000000E+00  0.00000000E+00  0.00000000E+00
  0.00000000E+00  0.00000000E+00  0.00000000E+00
  0.00000000E+00  0.00000000E+00  0.00000000E+00
  0.00000000E+00  0.00000000E+00  0.00000000E+00
  0.00000000E+00  0.00000000E+00  0.00000000E+00
  0.00000000E+00  0.00000000E+00  0.00000000E+00
  0.00000000E+00  0.00000000E+00  0.00000000E+00
  0.00000000E+00  0.00000000E+00  0.00000000E+00
  0.00000000E+00  0.00000000E+00  0.00000000E+00
  0.00000000E+00  0.00000000E+00  0.00000000E+00
  0.00000000E+00  0.00000000E+00  0.00000000E+00
  0.00000000E+00  0.00000000E+00  0.00000000E+00
  0.00000000E+00  0.00000000E+00  0.00000000E+00
  0.00000000E+00  0.00000000E+00  0.00000000E+00
  0.00000000E+00  0.00000000E+00  0.00000000E+00
  0.00000000E+00  0.00000000E+00  0.00000000E+00
  0.00000000E+00  0.00000000E+00  0.00000000E+00
  0.00000000E+00  0.00000000E+00  0.00000000E+00
  0.00000000E+00  0.00000000E+00  0.00000000E+00
  0.00000000E+00  0.00000000E+00  0.00000000E+00
  0.00000000E+00  0.00000000E+00  0.00000000E+00
  0.00000000E+00  0.00000000E+00  0.00000000E+00
  0.00000000E+00  0.00000000E+00  0.00000000E+00
  0.00000000E+00  0.00000000E+00  0.00000000E+00
  0.00000000E+00  0.00000000E+00  0.00000000E+00
  0.00000000E+00  0.00000000E+00  0.00000000E+00
  0.00000000E+00  0.00000000E+00  0.00000000E+00
  0.00000000E+00  0.00000000E+00  0.00000000E+00
  0.00000000E+00  0.00000000E+00  0.00000000E+00
  0.00000000E+00  0.00000000E+00  0.00000000E+00
  0.00000000E+00  0.00000000E+00  0.00000000E+00
  0.00000000E+00  0.00000000E+00  0.00000000E+00
  0.00000000E+00  0.00000000E+00  0.00000000E+00
  0.00000000E+00  0.00000000E+00  0.00000000E+00
  0.00000000E+00  0.00000000E+00  0.00000000E+00
  0.00000000E+00  0.00000000E+00  0.00000000E+00
  0.00000000E+00  0.00000000E+00  0.00000000E+00
  0.00000000E+00  0.00000000E+00  0.00000000E+00
  0.00000000E+00  0.00000000E+00  0.00000000E+00
  0.00000000E+00  0.00000000E+00  0.00000000E+00
  0.00000000E+00  0.00000000E+00  0.00000000E+00
  0.00000000E+00  0.00000000E+00  0.00000000E+00
  0.00000000E+00  0.00000000E+00  0.00000000E+00
  0.00000000E+00  0.00000000E+00  0.00000000E+00
  0.00000000E+00  0.00000000E+00  0.00000000E+00
  0.00000000E+00  0.00000000E+00  0.00000000E+00
  0.00000000E+00  0.00000000E+00  0.00000000E+00
