 H  O                                   
   1.0000000000000000     
    20.0000000000000000    0.0000000000000000    0.0000000000000000
     0.0000000000000000   20.0000000000000000    0.0000000000000000
     0.0000000000000000    0.0000000000000000   20.0000000000000000
  H               O             
     2     1
Direct
  0.4903776641503796  0.4811733132271172  0.5000000263796878
  0.5271169711370405  0.5486315900163987  0.5000000346985942
  0.4825053647125799  0.5291950967564816  0.4989999389217181

  0.00000000E+00  0.00000000E+00  0.00000000E+00
  0.00000000E+00  0.00000000E+00  0.00000000E+00
  0.00000000E+00  0.00000000E+00  0.00000000E+00
