 vasp.6.4.3 19Mar24 (build Oct 31 2024 19:09:51) complex                         
 executed on             LinuxGNU date 2026.03.16  23:51:47
 running  128 mpi-ranks, with    1 threads/rank, on    1 nodes
 distrk:  each k-point on  128 cores,    1 groups
 distr:  one band on NCORE=   4 cores,   32 groups


--------------------------------------------------------------------------------------------------------


 INCAR:
   SYSTEM = H2O molecule frequencies (RPBE-D3)
   PREC = Normal
   ENCUT = 400
   EDIFF = 1E-8
   GGA = RP
   IVDW = 11
   ISPIN = 1
   NELM = 300
   ISMEAR = 0
   SIGMA = 0.01
   IBRION = 5
   NFREE = 2
   POTIM = 0.02
   NSW = 1
   ISTART = 1
   ICHARG = 0
   ISYM = 0
   LREAL = .FALSE.
   ALGO = Normal
   LWAVE = .FALSE.
   LCHARG = .FALSE.
   LASPH = .TRUE.
   ADDGRID = .TRUE.
   NCORE = 4

 POTCAR:    PAW_PBE H 15Jun2001                   
 POTCAR:    PAW_PBE O 08Apr2002                   
 POTCAR:    PAW_PBE H 15Jun2001                   
   VRHFIN =H: ultrasoft test                                                                        
   LEXCH  = PE                                                                                      
   EATOM  =    12.4884 eV,    0.9179 Ry                                                             
                                                                                                    
   TITEL  = PAW_PBE H 15Jun2001                                                                     
   LULTRA =        F    use ultrasoft PP ?                                                          
   IUNSCR =        0    unscreen: 0-lin 1-nonlin 2-no                                               
   RPACOR =    0.000    partial core radius                                                         
   POMASS =    1.000; ZVAL   =    1.000    mass and valenz                                          
   RCORE  =    1.100    outmost cutoff radius                                                       
   RWIGS  =    0.700; RWIGS  =    0.370    wigner-seitz radius (au A)                               
   ENMAX  =  250.000; ENMIN  =  200.000 eV                                                          
   RCLOC  =    0.701    cutoff for local pot                                                        
   LCOR   =        T    correct aug charges                                                         
   LPAW   =        T    paw PP                                                                      
   EAUG   =  400.000                                                                                
   RMAX   =    1.123    core radius for proj-oper                                                   
   RAUG   =    1.200    factor for augmentation sphere                                              
   RDEP   =    1.112    radius for radial grids                                                     
   RDEPT  =    0.926    core radius for aug-charge                                                  
                                                                                                    
   Atomic configuration                                                                             
    2 entries                                                                                       
     n  l   j            E        occ.                                                              
     1  0  0.50        -6.4927   1.0000                                                             
     2  1  0.50        -3.4015   0.0000                                                             
   Description                                                                                      
     l       E           TYP  RCUT    TYP  RCUT                                                     
     0     -6.4927494     23  1.100                                                                 
     0      6.8029130     23  1.100                                                                 
     1     -4.0817478     23  1.100                                                                 
  local pseudopotential read in
  atomic valenz-charges read in
  non local Contribution for L=           0  read in
    real space projection operators read in
  non local Contribution for L=           0  read in
    real space projection operators read in
  non local Contribution for L=           1  read in
    real space projection operators read in
    PAW grid and wavefunctions read in

   number of l-projection  operators is LMAX  =           3
   number of lm-projection operators is LMMAX =           5

 POTCAR:    PAW_PBE O 08Apr2002                   
   VRHFIN =O: s2p4                                                                                  
   LEXCH  = PE                                                                                      
   EATOM  =   432.3788 eV,   31.7789 Ry                                                             
                                                                                                    
   TITEL  = PAW_PBE O 08Apr2002                                                                     
   LULTRA =        F    use ultrasoft PP ?                                                          
   IUNSCR =        1    unscreen: 0-lin 1-nonlin 2-no                                               
   RPACOR =    1.200    partial core radius                                                         
   POMASS =   16.000; ZVAL   =    6.000    mass and valenz                                          
   RCORE  =    1.520    outmost cutoff radius                                                       
   RWIGS  =    1.550; RWIGS  =    0.820    wigner-seitz radius (au A)                               
   ENMAX  =  400.000; ENMIN  =  300.000 eV                                                          
   ICORE  =        2    local potential                                                             
   LCOR   =        T    correct aug charges                                                         
   LPAW   =        T    paw PP                                                                      
   EAUG   =  605.392                                                                                
   DEXC   =    0.000                                                                                
   RMAX   =    1.553    core radius for proj-oper                                                   
   RAUG   =    1.300    factor for augmentation sphere                                              
   RDEP   =    1.550    radius for radial grids                                                     
   RDEPT  =    1.329    core radius for aug-charge                                                  
                                                                                                    
   Atomic configuration                                                                             
    4 entries                                                                                       
     n  l   j            E        occ.                                                              
     1  0  0.50      -514.6923   2.0000                                                             
     2  0  0.50       -23.9615   2.0000                                                             
     2  1  0.50        -9.0305   4.0000                                                             
     3  2  1.50        -9.5241   0.0000                                                             
   Description                                                                                      
     l       E           TYP  RCUT    TYP  RCUT                                                     
     0    -23.9615318     23  1.200                                                                 
     0     -9.5240782     23  1.200                                                                 
     1     -9.0304911     23  1.520                                                                 
     1      8.1634956     23  1.520                                                                 
     2     -9.5240782      7  1.500                                                                 
  local pseudopotential read in
  partial core-charges read in
  partial kinetic energy density read in
  kinetic energy density of atom read in
  atomic valenz-charges read in
  non local Contribution for L=           0  read in
    real space projection operators read in
  non local Contribution for L=           0  read in
    real space projection operators read in
  non local Contribution for L=           1  read in
    real space projection operators read in
  non local Contribution for L=           1  read in
    real space projection operators read in
    PAW grid and wavefunctions read in

   number of l-projection  operators is LMAX  =           4
   number of lm-projection operators is LMMAX =           8

 -----------------------------------------------------------------------------
|                                                                             |
|               ----> ADVICE to this user running VASP <----                  |
|                                                                             |
|     You enforced a specific xc type in the INCAR file but a different       |
|     type was found in the POTCAR file.                                      |
|     I HOPE YOU KNOW WHAT YOU ARE DOING!                                     |
|                                                                             |
 -----------------------------------------------------------------------------

  PAW_PBE H 15Jun2001                   :
 energy of atom  1       EATOM=  -12.4884
 kinetic energy error for atom=    0.0098 (will be added to EATOM!!)
  PAW_PBE O 08Apr2002                   :
 energy of atom  2       EATOM= -432.3788
 kinetic energy error for atom=    0.1156 (will be added to EATOM!!)


 POSCAR:  H  O
  positions in direct lattice
  velocities in cartesian coordinates
 IVDW         = 11
 VDW_S6       =    1.0000
 VDW_S8       =    0.5140
 VDW_SR       =    0.8720
 VDW_RADIUS   =   50.2022 A
 VDW_CNRADIUS =   21.1671 A


 exchange-correlation table for RP
   RHO(1)=    0.500       N(1)  =     2000
   RHO(2)=  100.500       N(2)  =     4000



--------------------------------------------------------------------------------------------------------


 ion  position               nearest neighbor table
   1  0.490  0.481  0.500-   3 0.97
   2  0.527  0.549  0.500-   3 0.97
   3  0.483  0.529  0.500-   2 0.97   1 0.97


IMPORTANT INFORMATION: All symmetrisations will be switched off!
NOSYMM: (Re-)initialisation of all symmetry stuff for point group C_1.


----------------------------------------------------------------------------------------

                                     Primitive cell                                     

  volume of cell :    8000.0000

  direct lattice vectors                    reciprocal lattice vectors
    20.000000000  0.000000000  0.000000000     0.050000000  0.000000000  0.000000000
     0.000000000 20.000000000  0.000000000     0.000000000  0.050000000  0.000000000
     0.000000000  0.000000000 20.000000000     0.000000000  0.000000000  0.050000000

  length of vectors
    20.000000000 20.000000000 20.000000000     0.050000000  0.050000000  0.050000000

  position of ions in fractional coordinates (direct lattice)
     0.490377664  0.481173313  0.500000026
     0.527116971  0.548631590  0.500000035
     0.482505365  0.529195097  0.499999939

  ion indices of the primitive-cell ions
   primitive index   ion index
                 1           1
                 2           2
                 3           3

----------------------------------------------------------------------------------------



 KPOINTS: Gamma only                              

Automatic generation of k-mesh.
 Grid dimensions read from file:
 generate k-points for:    1    1    1

 Generating k-lattice:

  Cartesian coordinates                     Fractional coordinates (reciprocal lattice)
     0.050000000  0.000000000  0.000000000     1.000000000  0.000000000  0.000000000
     0.000000000  0.050000000  0.000000000     0.000000000  1.000000000  0.000000000
     0.000000000  0.000000000  0.050000000     0.000000000  0.000000000  1.000000000

  Length of vectors
     0.050000000  0.050000000  0.050000000

  Shift w.r.t. Gamma in fractional coordinates (k-lattice)
     0.000000000  0.000000000  0.000000000

 
 Subroutine IBZKPT returns following result:
 ===========================================
 
 Found      1 irreducible k-points:
 
 Following reciprocal coordinates:
            Coordinates               Weight
  0.000000  0.000000  0.000000      1.000000
 
 Following cartesian coordinates:
            Coordinates               Weight
  0.000000  0.000000  0.000000      1.000000
 
 
 Subroutine IBZKPT_HF returns following result:
 ==============================================
 
 Found      1 k-points in 1st BZ
 the following      1 k-points will be used (e.g. in the exchange kernel)
 Following reciprocal coordinates:   # in IRBZ
  0.000000  0.000000  0.000000    1.00000000   1 t-inv F


--------------------------------------------------------------------------------------------------------




 Dimension of arrays:
   k-points           NKPTS =      1   k-points in BZ     NKDIM =      1   number of bands    NBANDS=     32
   number of dos      NEDOS =    301   number of ions     NIONS =      3
   non local maximal  LDIM  =      4   non local SUM 2l+1 LMDIM =      8
   total plane-waves  NPLWV = 941192
   max r-space proj   IRMAX =      1   max aug-charges    IRDMAX=  12409
   dimension x,y,z NGX =    98 NGY =   98 NGZ =   98
   dimension x,y,z NGXF=   196 NGYF=  196 NGZF=  196
   support grid    NGXF=   392 NGYF=  392 NGZF=  392
   ions per type =               2   1
   NGX,Y,Z   is equivalent  to a cutoff of   8.15,  8.15,  8.15 a.u.
   NGXF,Y,Z  is equivalent  to a cutoff of  16.29, 16.29, 16.29 a.u.

 SYSTEM =  H2O molecule frequencies (RPBE-D3)      
 POSCAR =   H  O                                   

 Startparameter for this run:
   NWRITE =      2    write-flag & timer
   PREC   = normal    normal or accurate (medium, high low for compatibility)
   ISTART =      0    job   : 0-new  1-cont  2-samecut
   ICHARG =      2    charge: 1-file 2-atom 10-const
   ISPIN  =      1    spin polarized calculation?
   LNONCOLLINEAR =      F non collinear calculations
   LSORBIT =      F    spin-orbit coupling
   INIWAV =      1    electr: 0-lowe 1-rand  2-diag
   LASPH  =      T    aspherical Exc in radial PAW
 Electronic Relaxation 1
   ENCUT  =  400.0 eV  29.40 Ry    5.42 a.u.  32.61 32.61 32.61*2*pi/ulx,y,z
   ENINI  =  400.0     initial cutoff
   ENAUG  =  605.4 eV  augmentation charge cutoff
   NELM   =    300;   NELMIN=  2; NELMDL=  0     # of ELM steps 
   EDIFF  = 0.1E-07   stopping-criterion for ELM
   LREAL  =      F    real-space projection
   NLSPLINE    = F    spline interpolate recip. space projectors
   LCOMPAT=      F    compatible to vasp.4.4
   GGA_COMPAT  = T    GGA compatible to vasp.4.4-vasp.4.6
   LMAXPAW     = -100 max onsite density
   LMAXMIX     =    2 max onsite mixed and CHGCAR
   VOSKOWN=      0    Vosko Wilk Nusair interpolation
   ROPT   =    0.00000   0.00000
 Ionic relaxation
   EDIFFG = 0.1E-06   stopping-criterion for IOM
   NSW    =     73    number of steps for IOM
   NBLOCK =      1;   KBLOCK =     73    inner block; outer block 
   IBRION =      5    ionic relax: 0-MD 1-quasi-New 2-CG
   NFREE  =      2    steps in history (QN), initial steepest desc. (CG)
   ISIF   =      2    stress and relaxation
   IWAVPR =     11    prediction:  0-non 1-charg 2-wave 3-comb
   ISYM   =      0    0-nonsym 1-usesym 2-fastsym
   LCORR  =      T    Harris-Foulkes like correction to forces

   POTIM  = 0.0200    time-step for ionic-motion
   TEIN   =    0.0    initial temperature
   TEBEG  =    0.0;   TEEND  =   0.0 temperature during run
   SMASS  =  -3.00    Nose mass-parameter (am)
   estimated Nose-frequenzy (Omega)   =  0.10E-29 period in steps = 0.31E+48 mass=  -0.914E-26a.u.
   SCALEE = 1.0000    scale energy and forces
   NPACO  =    256;   APACO  = 10.0  distance and # of slots for P.C.
   PSTRESS=    0.0 pullay stress

  Mass of Ions in am
   POMASS =   1.00 16.00
  Ionic Valenz
   ZVAL   =   1.00  6.00
  Atomic Wigner-Seitz radii
   RWIGS  =  -1.00 -1.00
  virtual crystal weights 
   VCA    =   1.00  1.00
   NELECT =       8.0000    total number of electrons
   NUPDOWN=      -1.0000    fix difference up-down

 DOS related values:
   EMIN   =  10.00;   EMAX   =-10.00  energy-range for DOS
   EFERMI =   0.00;   METHOD = LEGACY      
   ISMEAR =     0;   SIGMA  =   0.01  broadening in eV -4-tet -1-fermi 0-gaus

 Electronic relaxation 2 (details)
   IALGO  =     38    algorithm
   LDIAG  =      T    sub-space diagonalisation (order eigenvalues)
   LSUBROT=      F    optimize rotation matrix (better conditioning)
   TURBO    =      0    0=normal 1=particle mesh
   IRESTART =      0    0=no restart 2=restart with 2 vectors
   NREBOOT  =      0    no. of reboots
   NMIN     =      0    reboot dimension
   EREF     =   0.00    reference energy to select bands
   IMIX   =      4    mixing-type and parameters
     AMIX     =   0.40;   BMIX     =  1.00
     AMIX_MAG =   1.60;   BMIX_MAG =  1.00
     AMIN     =   0.10
     WC   =   100.;   INIMIX=   1;  MIXPRE=   1;  MAXMIX= -45

 Intra band minimization:
   WEIMIN = 0.0010     energy-eigenvalue tresh-hold
   EBREAK =  0.78E-10  absolut break condition
   DEPER  =   0.30     relativ break condition  

   TIME   =   0.40     timestep for ELM

  volume/ion in A,a.u.               =    2666.67     17995.55
  Fermi-wavevector in a.u.,A,eV,Ry     =   0.163710  0.309367  0.364649  0.026801
  Thomas-Fermi vector in A             =   0.862763

 Write flags
   LWAVE        =      F    write WAVECAR
   LDOWNSAMPLE  =      F    k-point downsampling of WAVECAR
   LCHARG       =      F    write CHGCAR
   LVTOT        =      F    write LOCPOT, total local potential
   LVHAR        =      F    write LOCPOT, Hartree potential only
   WRT_POTENTIAL= false  ! write potential to hdf5 file
   LELF         =      F    write electronic localiz. function (ELF)
   LORBIT       =      0    0 simple, 1 ext, 2 COOP (PROOUT), +10 PAW based schemes


 Dipole corrections
   LMONO      =      F    monopole corrections only (constant potential shift)
   LDIPOL     =      F    correct potential (dipole corrections)
   IDIPOL     =      0    1-x, 2-y, 3-z, 4-all directions 
   EPSILON    =  1.0000000 bulk dielectric constant
   LVACPOTAV  =      F  vacuum potentials using an averaging scheme for the charge density
   VACPOTFLAT =  0.1000000 required flatness to determine vacuum potential
 Exchange correlation treatment:
   GGA     = RP    functional components
   XC_C    = 1    coefficients multiplying the functional components
   LIBXC   =     F    Libxc                    
   VOSKOWN =     0    Vosko Wilk Nusair interpolation
   LHFCALC =     F    Hartree Fock is set to
   LHFONE  =     F    Hartree Fock one center treatment
   AEXX    =    0.0000 exact exchange contribution

 Parameters of functionals:
   RP:
     No parameter

 Van der Waals corrections
   IVDW    =    11    specifies the selected vdW correction

 Linear response parameters
   LEPSILON=     F    determine dielectric tensor
   LRPA    =     F    only Hartree local field effects (RPA)
   LNABLA  =     F    use nabla operator in PAW spheres
   LVEL    =     F    velocity operator in full k-point grid
   CSHIFT  =0.1000    complex shift for real part using Kramers Kronig
   OMEGAMAX=  -1.0    maximum frequency
   DEG_THRESHOLD= 0.2000000E-02 threshold for treating states as degnerate
   RTIME   =   -0.100 relaxation time in fs
  (WPLASMAI=    0.000 imaginary part of plasma frequency in eV, 0.658/RTIME)
   DFIELD  = 0.0000000 0.0000000 0.0000000 field for delta impulse in time

  Optional k-point grid parameters
   LKPOINTS_OPT  =     F    use optional k-point grid
   KPOINTS_OPT_MODE=     1    mode for optional k-point grid

 Orbital magnetization related:
   ORBITALMAG=     F  switch on orbital magnetization
   LCHIMAG   =     F  perturbation theory with respect to B field
   DQ        =  0.001000  dq finite difference perturbation B field
   LLRAUG    =     F  two centre corrections for induced B field
   LBONE     =     F  B-component reconstruction in AE one-centre
   LVGVCALC  =     T  calculate vGv susceptibility
   LVGVAPPL  =     F  apply vGv susceptibility instead of pGv for G=0

 Random number generation:
   RANDOM_GENERATOR = DEFAULT
   PCG_SEED         = not used


--------------------------------------------------------------------------------------------------------


 finite differences
 charge density and potential will be updated during run
 non-spin polarized calculation
 Variant of blocked Davidson
 Davidson routine will perform the subspace rotation
 perform sub-space diagonalisation
    after iterative eigenvector-optimisation
 modified Broyden-mixing scheme, WC =      100.0
 initial mixing is a Kerker type mixing with AMIX =  0.4000 and BMIX =      1.0000
 Hartree-type preconditioning will be used
 using additional bands           28
 reciprocal scheme for non local part
 use partial core corrections
 calculate Harris-corrections to forces   (improved forces if not selfconsistent)
 use gradient corrections 
 use of overlap-Matrix (Vanderbilt PP)
 Gauss-broadening in eV      SIGMA  =   0.01


--------------------------------------------------------------------------------------------------------


  energy-cutoff  :      400.00
  volume of cell :     8000.00
      direct lattice vectors                 reciprocal lattice vectors
    20.000000000  0.000000000  0.000000000     0.050000000  0.000000000  0.000000000
     0.000000000 20.000000000  0.000000000     0.000000000  0.050000000  0.000000000
     0.000000000  0.000000000 20.000000000     0.000000000  0.000000000  0.050000000

  length of vectors
    20.000000000 20.000000000 20.000000000     0.050000000  0.050000000  0.050000000



 k-points in units of 2pi/SCALE and weight: Gamma only                              
   0.00000000  0.00000000  0.00000000       1.000

 k-points in reciprocal lattice and weights: Gamma only                              
   0.00000000  0.00000000  0.00000000       1.000

 position of ions in fractional coordinates (direct lattice) 
   0.49037766  0.48117331  0.50000003
   0.52711697  0.54863159  0.50000003
   0.48250536  0.52919510  0.49999994

 position of ions in cartesian coordinates  (Angst):
   9.80755328  9.62346626 10.00000053
  10.54233942 10.97263180 10.00000069
   9.65010729 10.58390194  9.99999878



--------------------------------------------------------------------------------------------------------


 k-point     1 :   0.0000 0.0000 0.0000  plane waves:  145165

 maximum and minimum number of plane-waves per node :     36308    36275

 maximum number of plane-waves:    145165
 maximum index in each direction: 
   IXMAX=   32   IYMAX=   32   IZMAX=   32
   IXMIN=  -32   IYMIN=  -32   IZMIN=  -32


 parallel 3D FFT for wavefunctions:
    minimum data exchange during FFTs selected (reduces bandwidth)
 parallel 3D FFT for charge:
    minimum data exchange during FFTs selected (reduces bandwidth)


 total amount of memory used by VASP MPI-rank0    68972. kBytes
=======================================================================

   base      :      30000. kBytes
   nonl-proj :       6392. kBytes
   fftplans  :      18019. kBytes
   grid      :      13977. kBytes
   one-center:          3. kBytes
   wavefun   :        581. kBytes

     INWAV:  cpu time      0.0000: real time      0.0000
 Broyden mixing: mesh for mixing (old mesh)
   NGX = 65   NGY = 65   NGZ = 65
  (NGX  =196   NGY  =196   NGZ  =196)
  gives a total of 274625 points

 initial charge density was supplied:
 charge density of overlapping atoms calculated
 number of electron       8.0000000 magnetization 
 keeping initial charge density in first step


--------------------------------------------------------------------------------------------------------


 Maximum index for augmentation-charges            0 (set IRDMAX)


--------------------------------------------------------------------------------------------------------


 First call to EWALD:  gamma=   0.089
 Maximum number of real-space cells 3x 3x 3
 Maximum number of reciprocal cells 3x 3x 3

    FEWALD:  cpu time      0.0014: real time      0.0014


--------------------------------------- Ionic step        1  -------------------------------------------




--------------------------------------- Iteration      1(   1)  ---------------------------------------


    POTLOK:  cpu time      0.0678: real time      0.0803
    SETDIJ:  cpu time      0.0918: real time      0.0927
     EDDAV:  cpu time      0.2444: real time      0.2478
       DOS:  cpu time      0.0014: real time      0.0015
    --------------------------------------------
      LOOP:  cpu time      0.4054: real time      0.4224

 eigenvalue-minimisations  :    96
 total energy-change (2. order) : 0.5578050E+02  (-0.1436658E+03)
 number of electron       8.0000000 magnetization 
 augmentation part        8.0000000 magnetization 

 Free energy of the ion-electron system (eV)
  ---------------------------------------------------
  alpha Z        PSCENC =         0.02803141
  Ewald energy   TEWEN  =       121.60220645
  -Hartree energ DENC   =      -480.59826871
  -exchange      EXHF   =         0.00000000
  -V(xc)+E(xc)   XCENC  =        31.79035320
  PAW double counting   =       350.99800903     -352.54614913
  entropy T*S    EENTRO =        -0.00000000
  eigenvalues    EBANDS =       -72.76350486
  atomic energy  EATOM  =       457.26981990
  Solvation  Ediel_sol  =         0.00000000
  ---------------------------------------------------
  free energy    TOTEN  =        55.78049729 eV

  energy without entropy =       55.78049729  energy(sigma->0) =       55.78049729


--------------------------------------------------------------------------------------------------------




--------------------------------------- Iteration      1(   2)  ---------------------------------------


     EDDAV:  cpu time      0.4138: real time      0.4216
       DOS:  cpu time      0.0006: real time      0.0006
    --------------------------------------------
      LOOP:  cpu time      0.4143: real time      0.4222

 eigenvalue-minimisations  :   128
 total energy-change (2. order) :-0.6860313E+02  (-0.6860313E+02)
 number of electron       8.0000000 magnetization 
 augmentation part        8.0000000 magnetization 

 Free energy of the ion-electron system (eV)
  ---------------------------------------------------
  alpha Z        PSCENC =         0.02803141
  Ewald energy   TEWEN  =       121.60220645
  -Hartree energ DENC   =      -480.59826871
  -exchange      EXHF   =         0.00000000
  -V(xc)+E(xc)   XCENC  =        31.79035320
  PAW double counting   =       350.99800903     -352.54614913
  entropy T*S    EENTRO =        -0.00000000
  eigenvalues    EBANDS =      -141.36663569
  atomic energy  EATOM  =       457.26981990
  Solvation  Ediel_sol  =         0.00000000
  ---------------------------------------------------
  free energy    TOTEN  =       -12.82263354 eV

  energy without entropy =      -12.82263354  energy(sigma->0) =      -12.82263354


--------------------------------------------------------------------------------------------------------




--------------------------------------- Iteration      1(   3)  ---------------------------------------


     EDDAV:  cpu time      0.1721: real time      0.1740
       DOS:  cpu time      0.0004: real time      0.0004
    --------------------------------------------
      LOOP:  cpu time      0.1725: real time      0.1744

 eigenvalue-minimisations  :    64
 total energy-change (2. order) :-0.3268950E+01  (-0.3268950E+01)
 number of electron       8.0000000 magnetization 
 augmentation part        8.0000000 magnetization 

 Free energy of the ion-electron system (eV)
  ---------------------------------------------------
  alpha Z        PSCENC =         0.02803141
  Ewald energy   TEWEN  =       121.60220645
  -Hartree energ DENC   =      -480.59826871
  -exchange      EXHF   =         0.00000000
  -V(xc)+E(xc)   XCENC  =        31.79035320
  PAW double counting   =       350.99800903     -352.54614913
  entropy T*S    EENTRO =        -0.00000000
  eigenvalues    EBANDS =      -144.63558607
  atomic energy  EATOM  =       457.26981990
  Solvation  Ediel_sol  =         0.00000000
  ---------------------------------------------------
  free energy    TOTEN  =       -16.09158392 eV

  energy without entropy =      -16.09158392  energy(sigma->0) =      -16.09158392


--------------------------------------------------------------------------------------------------------




--------------------------------------- Iteration      1(   4)  ---------------------------------------


     EDDAV:  cpu time      0.1719: real time      0.1738
       DOS:  cpu time      0.0004: real time      0.0004
    --------------------------------------------
      LOOP:  cpu time      0.1723: real time      0.1742

 eigenvalue-minimisations  :    64
 total energy-change (2. order) :-0.2463999E-01  (-0.2463999E-01)
 number of electron       8.0000000 magnetization 
 augmentation part        8.0000000 magnetization 

 Free energy of the ion-electron system (eV)
  ---------------------------------------------------
  alpha Z        PSCENC =         0.02803141
  Ewald energy   TEWEN  =       121.60220645
  -Hartree energ DENC   =      -480.59826871
  -exchange      EXHF   =         0.00000000
  -V(xc)+E(xc)   XCENC  =        31.79035320
  PAW double counting   =       350.99800903     -352.54614913
  entropy T*S    EENTRO =        -0.00000000
  eigenvalues    EBANDS =      -144.66022606
  atomic energy  EATOM  =       457.26981990
  Solvation  Ediel_sol  =         0.00000000
  ---------------------------------------------------
  free energy    TOTEN  =       -16.11622391 eV

  energy without entropy =      -16.11622391  energy(sigma->0) =      -16.11622391


--------------------------------------------------------------------------------------------------------




--------------------------------------- Iteration      1(   5)  ---------------------------------------


     EDDAV:  cpu time      0.3256: real time      0.3289
       DOS:  cpu time      0.0003: real time      0.0003
    CHARGE:  cpu time      0.0712: real time      0.0722
    MIXING:  cpu time      0.0051: real time      0.0058
    --------------------------------------------
      LOOP:  cpu time      0.4023: real time      0.4072

 eigenvalue-minimisations  :   128
 total energy-change (2. order) :-0.2787079E-03  (-0.2787079E-03)
 number of electron       8.0000001 magnetization 
 augmentation part        0.8227190 magnetization 

 Broyden mixing:
  rms(total) = 0.77756E+00    rms(broyden)= 0.77545E+00
  rms(prec ) = 0.85144E+00
  weight for this iteration     100.00

 Free energy of the ion-electron system (eV)
  ---------------------------------------------------
  alpha Z        PSCENC =         0.02803141
  Ewald energy   TEWEN  =       121.60220645
  -Hartree energ DENC   =      -480.59826871
  -exchange      EXHF   =         0.00000000
  -V(xc)+E(xc)   XCENC  =        31.79035320
  PAW double counting   =       350.99800903     -352.54614913
  entropy T*S    EENTRO =        -0.00000000
  eigenvalues    EBANDS =      -144.66050476
  atomic energy  EATOM  =       457.26981990
  Solvation  Ediel_sol  =         0.00000000
  ---------------------------------------------------
  free energy    TOTEN  =       -16.11650261 eV

  energy without entropy =      -16.11650261  energy(sigma->0) =      -16.11650261


--------------------------------------------------------------------------------------------------------




--------------------------------------- Iteration      1(   6)  ---------------------------------------


    POTLOK:  cpu time      0.0665: real time      0.0670
    SETDIJ:  cpu time      0.0902: real time      0.0909
     EDDAV:  cpu time      0.1709: real time      0.1727
       DOS:  cpu time      0.0009: real time      0.0009
    CHARGE:  cpu time      0.0654: real time      0.0661
    MIXING:  cpu time      0.0028: real time      0.0037
    --------------------------------------------
      LOOP:  cpu time      0.3967: real time      0.4013

 eigenvalue-minimisations  :    64
 total energy-change (2. order) : 0.1787412E+01  (-0.8858078E+00)
 number of electron       8.0000001 magnetization 
 augmentation part        0.6922600 magnetization 

 Broyden mixing:
  rms(total) = 0.32879E+00    rms(broyden)= 0.32826E+00
  rms(prec ) = 0.34462E+00
  weight for this iteration     100.00

 eigenvalues of (default mixing * dielectric matrix)
  average eigenvalue GAMMA=   0.9295
  0.9295

 Free energy of the ion-electron system (eV)
  ---------------------------------------------------
  alpha Z        PSCENC =         0.02803141
  Ewald energy   TEWEN  =       121.60220645
  -Hartree energ DENC   =      -504.24019199
  -exchange      EXHF   =         0.00000000
  -V(xc)+E(xc)   XCENC  =        33.09745414
  PAW double counting   =       450.73086510     -452.55163220
  entropy T*S    EENTRO =        -0.00000000
  eigenvalues    EBANDS =      -120.26564349
  atomic energy  EATOM  =       457.26981990
  Solvation  Ediel_sol  =         0.00000000
  ---------------------------------------------------
  free energy    TOTEN  =       -14.32909069 eV

  energy without entropy =      -14.32909069  energy(sigma->0) =      -14.32909069


--------------------------------------------------------------------------------------------------------




--------------------------------------- Iteration      1(   7)  ---------------------------------------


    POTLOK:  cpu time      0.0645: real time      0.0661
    SETDIJ:  cpu time      0.0909: real time      0.0916
     EDDAV:  cpu time      0.3237: real time      0.3271
       DOS:  cpu time      0.0006: real time      0.0007
    CHARGE:  cpu time      0.0655: real time      0.0662
    MIXING:  cpu time      0.0029: real time      0.0029
    --------------------------------------------
      LOOP:  cpu time      0.5482: real time      0.5545

 eigenvalue-minimisations  :   128
 total energy-change (2. order) : 0.9413390E-01  (-0.8413414E-02)
 number of electron       8.0000001 magnetization 
 augmentation part        0.6886744 magnetization 

 Broyden mixing:
  rms(total) = 0.20827E+00    rms(broyden)= 0.20824E+00
  rms(prec ) = 0.21981E+00
  weight for this iteration     100.00

 eigenvalues of (default mixing * dielectric matrix)
  average eigenvalue GAMMA=   1.7363
  1.0403  2.4324

 Free energy of the ion-electron system (eV)
  ---------------------------------------------------
  alpha Z        PSCENC =         0.02803141
  Ewald energy   TEWEN  =       121.60220645
  -Hartree energ DENC   =      -507.83031432
  -exchange      EXHF   =         0.00000000
  -V(xc)+E(xc)   XCENC  =        33.28350225
  PAW double counting   =       495.99171463     -497.78212872
  entropy T*S    EENTRO =        -0.00000000
  eigenvalues    EBANDS =      -116.79778839
  atomic energy  EATOM  =       457.26981990
  Solvation  Ediel_sol  =         0.00000000
  ---------------------------------------------------
  free energy    TOTEN  =       -14.23495679 eV

  energy without entropy =      -14.23495679  energy(sigma->0) =      -14.23495679


--------------------------------------------------------------------------------------------------------




--------------------------------------- Iteration      1(   8)  ---------------------------------------


    POTLOK:  cpu time      0.0722: real time      0.0728
    SETDIJ:  cpu time      0.0906: real time      0.0914
     EDDAV:  cpu time      0.1710: real time      0.1729
       DOS:  cpu time      0.0007: real time      0.0008
    CHARGE:  cpu time      0.0656: real time      0.0663
    MIXING:  cpu time      0.0034: real time      0.0035
    --------------------------------------------
      LOOP:  cpu time      0.4035: real time      0.4076

 eigenvalue-minimisations  :    64
 total energy-change (2. order) : 0.7882949E-01  (-0.8376152E-02)
 number of electron       8.0000001 magnetization 
 augmentation part        0.6867681 magnetization 

 Broyden mixing:
  rms(total) = 0.18295E-01    rms(broyden)= 0.18289E-01
  rms(prec ) = 0.27628E-01
  weight for this iteration     100.00

 eigenvalues of (default mixing * dielectric matrix)
  average eigenvalue GAMMA=   1.4787
  2.4017  0.9756  1.0586

 Free energy of the ion-electron system (eV)
  ---------------------------------------------------
  alpha Z        PSCENC =         0.02803141
  Ewald energy   TEWEN  =       121.60220645
  -Hartree energ DENC   =      -513.43707745
  -exchange      EXHF   =         0.00000000
  -V(xc)+E(xc)   XCENC  =        33.59826007
  PAW double counting   =       571.13480689     -572.88622843
  entropy T*S    EENTRO =        -0.00000000
  eigenvalues    EBANDS =      -111.46594614
  atomic energy  EATOM  =       457.26981990
  Solvation  Ediel_sol  =         0.00000000
  ---------------------------------------------------
  free energy    TOTEN  =       -14.15612730 eV

  energy without entropy =      -14.15612730  energy(sigma->0) =      -14.15612730


--------------------------------------------------------------------------------------------------------




--------------------------------------- Iteration      1(   9)  ---------------------------------------


    POTLOK:  cpu time      0.0653: real time      0.0658
    SETDIJ:  cpu time      0.0901: real time      0.0909
     EDDAV:  cpu time      0.2421: real time      0.2446
       DOS:  cpu time      0.0005: real time      0.0005
    CHARGE:  cpu time      0.0654: real time      0.0661
    MIXING:  cpu time      0.0035: real time      0.0036
    --------------------------------------------
      LOOP:  cpu time      0.4670: real time      0.4715

 eigenvalue-minimisations  :    96
 total energy-change (2. order) :-0.2635429E-04  (-0.3508749E-03)
 number of electron       8.0000001 magnetization 
 augmentation part        0.6843556 magnetization 

 Broyden mixing:
  rms(total) = 0.14482E-01    rms(broyden)= 0.14475E-01
  rms(prec ) = 0.21898E-01
  weight for this iteration     100.00

 eigenvalues of (default mixing * dielectric matrix)
  average eigenvalue GAMMA=   1.9107
  1.0052  1.0052  2.6003  3.0319

 Free energy of the ion-electron system (eV)
  ---------------------------------------------------
  alpha Z        PSCENC =         0.02803141
  Ewald energy   TEWEN  =       121.60220645
  -Hartree energ DENC   =      -513.96786274
  -exchange      EXHF   =         0.00000000
  -V(xc)+E(xc)   XCENC  =        33.61335996
  PAW double counting   =       567.45190855     -569.20491448
  entropy T*S    EENTRO =        -0.00000000
  eigenvalues    EBANDS =      -110.94870270
  atomic energy  EATOM  =       457.26981990
  Solvation  Ediel_sol  =         0.00000000
  ---------------------------------------------------
  free energy    TOTEN  =       -14.15615365 eV

  energy without entropy =      -14.15615365  energy(sigma->0) =      -14.15615365


--------------------------------------------------------------------------------------------------------




--------------------------------------- Iteration      1(  10)  ---------------------------------------


    POTLOK:  cpu time      0.0661: real time      0.0668
    SETDIJ:  cpu time      0.0906: real time      0.0912
     EDDAV:  cpu time      0.1687: real time      0.1706
       DOS:  cpu time      0.0005: real time      0.0005
    CHARGE:  cpu time      0.0658: real time      0.0665
    MIXING:  cpu time      0.0036: real time      0.0036
    --------------------------------------------
      LOOP:  cpu time      0.3952: real time      0.3993

 eigenvalue-minimisations  :    64
 total energy-change (2. order) :-0.4256952E-02  (-0.5956699E-03)
 number of electron       8.0000001 magnetization 
 augmentation part        0.6853147 magnetization 

 Broyden mixing:
  rms(total) = 0.85142E-02    rms(broyden)= 0.85089E-02
  rms(prec ) = 0.11575E-01
  weight for this iteration     100.00

 eigenvalues of (default mixing * dielectric matrix)
  average eigenvalue GAMMA=   1.7394
  3.3027  2.4385  1.0884  0.9337  0.9337

 Free energy of the ion-electron system (eV)
  ---------------------------------------------------
  alpha Z        PSCENC =         0.02803141
  Ewald energy   TEWEN  =       121.60220645
  -Hartree energ DENC   =      -514.72684245
  -exchange      EXHF   =         0.00000000
  -V(xc)+E(xc)   XCENC  =        33.61573919
  PAW double counting   =       559.71402885     -561.45635803
  entropy T*S    EENTRO =        -0.00000000
  eigenvalues    EBANDS =      -110.20703593
  atomic energy  EATOM  =       457.26981990
  Solvation  Ediel_sol  =         0.00000000
  ---------------------------------------------------
  free energy    TOTEN  =       -14.16041060 eV

  energy without entropy =      -14.16041060  energy(sigma->0) =      -14.16041060


--------------------------------------------------------------------------------------------------------




--------------------------------------- Iteration      1(  11)  ---------------------------------------


    POTLOK:  cpu time      0.0661: real time      0.0667
    SETDIJ:  cpu time      0.0898: real time      0.0906
     EDDAV:  cpu time      0.2457: real time      0.2481
       DOS:  cpu time      0.0003: real time      0.0003
    CHARGE:  cpu time      0.0658: real time      0.0669
    MIXING:  cpu time      0.0032: real time      0.0033
    --------------------------------------------
      LOOP:  cpu time      0.4710: real time      0.4758

 eigenvalue-minimisations  :    96
 total energy-change (2. order) :-0.3239754E-02  (-0.2583263E-03)
 number of electron       8.0000001 magnetization 
 augmentation part        0.6832455 magnetization 

 Broyden mixing:
  rms(total) = 0.48253E-02    rms(broyden)= 0.48197E-02
  rms(prec ) = 0.75751E-02
  weight for this iteration     100.00

 eigenvalues of (default mixing * dielectric matrix)
  average eigenvalue GAMMA=   2.1360
  4.5663  2.9460  2.3664  1.0915  0.9231  0.9231

 Free energy of the ion-electron system (eV)
  ---------------------------------------------------
  alpha Z        PSCENC =         0.02803141
  Ewald energy   TEWEN  =       121.60220645
  -Hartree energ DENC   =      -515.23211004
  -exchange      EXHF   =         0.00000000
  -V(xc)+E(xc)   XCENC  =        33.63577510
  PAW double counting   =       561.90618388     -563.65196763
  entropy T*S    EENTRO =        -0.00000000
  eigenvalues    EBANDS =      -109.72158942
  atomic energy  EATOM  =       457.26981990
  Solvation  Ediel_sol  =         0.00000000
  ---------------------------------------------------
  free energy    TOTEN  =       -14.16365036 eV

  energy without entropy =      -14.16365036  energy(sigma->0) =      -14.16365036


--------------------------------------------------------------------------------------------------------




--------------------------------------- Iteration      1(  12)  ---------------------------------------


    POTLOK:  cpu time      0.0652: real time      0.0658
    SETDIJ:  cpu time      0.0904: real time      0.0911
     EDDAV:  cpu time      0.1698: real time      0.1718
       DOS:  cpu time      0.0004: real time      0.0004
    CHARGE:  cpu time      0.0660: real time      0.0668
    MIXING:  cpu time      0.0035: real time      0.0036
    --------------------------------------------
      LOOP:  cpu time      0.3954: real time      0.3995

 eigenvalue-minimisations  :    64
 total energy-change (2. order) :-0.6244107E-02  (-0.2597681E-03)
 number of electron       8.0000001 magnetization 
 augmentation part        0.6835975 magnetization 

 Broyden mixing:
  rms(total) = 0.25841E-02    rms(broyden)= 0.25838E-02
  rms(prec ) = 0.35325E-02
  weight for this iteration     100.00

 eigenvalues of (default mixing * dielectric matrix)
  average eigenvalue GAMMA=   2.0494
  4.7189  2.9608  2.5191  1.1258  1.1258  0.9475  0.9475

 Free energy of the ion-electron system (eV)
  ---------------------------------------------------
  alpha Z        PSCENC =         0.02803141
  Ewald energy   TEWEN  =       121.60220645
  -Hartree energ DENC   =      -515.37678128
  -exchange      EXHF   =         0.00000000
  -V(xc)+E(xc)   XCENC  =        33.62555229
  PAW double counting   =       561.87994336     -563.62511589
  entropy T*S    EENTRO =        -0.00000000
  eigenvalues    EBANDS =      -109.57355071
  atomic energy  EATOM  =       457.26981990
  Solvation  Ediel_sol  =         0.00000000
  ---------------------------------------------------
  free energy    TOTEN  =       -14.16989446 eV

  energy without entropy =      -14.16989446  energy(sigma->0) =      -14.16989446


--------------------------------------------------------------------------------------------------------




--------------------------------------- Iteration      1(  13)  ---------------------------------------


    POTLOK:  cpu time      0.0652: real time      0.0657
    SETDIJ:  cpu time      0.0917: real time      0.0924
     EDDAV:  cpu time      0.9459: real time      0.9521
       DOS:  cpu time      0.0003: real time      0.0003
    CHARGE:  cpu time      0.0653: real time      0.0662
    MIXING:  cpu time      0.0040: real time      0.0040
    --------------------------------------------
      LOOP:  cpu time      1.1724: real time      1.1807

 eigenvalue-minimisations  :    96
 total energy-change (2. order) :-0.1433011E-02  (-0.1360948E-04)
 number of electron       8.0000001 magnetization 
 augmentation part        0.6835485 magnetization 

 Broyden mixing:
  rms(total) = 0.18628E-02    rms(broyden)= 0.18626E-02
  rms(prec ) = 0.25700E-02
  weight for this iteration     100.00

 eigenvalues of (default mixing * dielectric matrix)
  average eigenvalue GAMMA=   2.2970
  6.2144  3.2987  2.6302  2.3381  1.1214  0.9370  0.9370  0.8996

 Free energy of the ion-electron system (eV)
  ---------------------------------------------------
  alpha Z        PSCENC =         0.02803141
  Ewald energy   TEWEN  =       121.60220645
  -Hartree energ DENC   =      -515.40540251
  -exchange      EXHF   =         0.00000000
  -V(xc)+E(xc)   XCENC  =        33.62513227
  PAW double counting   =       562.38652829     -564.13127761
  entropy T*S    EENTRO =        -0.00000000
  eigenvalues    EBANDS =      -109.54636567
  atomic energy  EATOM  =       457.26981990
  Solvation  Ediel_sol  =         0.00000000
  ---------------------------------------------------
  free energy    TOTEN  =       -14.17132747 eV

  energy without entropy =      -14.17132747  energy(sigma->0) =      -14.17132747


--------------------------------------------------------------------------------------------------------




--------------------------------------- Iteration      1(  14)  ---------------------------------------


    POTLOK:  cpu time      0.0648: real time      0.0661
    SETDIJ:  cpu time      0.0902: real time      0.0909
     EDDAV:  cpu time      0.3115: real time      0.3140
       DOS:  cpu time      0.0004: real time      0.0004
    CHARGE:  cpu time      0.0648: real time      0.0660
    MIXING:  cpu time      0.0039: real time      0.0039
    --------------------------------------------
      LOOP:  cpu time      0.5356: real time      0.5413

 eigenvalue-minimisations  :    64
 total energy-change (2. order) :-0.1610455E-02  (-0.2465474E-04)
 number of electron       8.0000001 magnetization 
 augmentation part        0.6837850 magnetization 

 Broyden mixing:
  rms(total) = 0.80578E-03    rms(broyden)= 0.80467E-03
  rms(prec ) = 0.11088E-02
  weight for this iteration     100.00

 eigenvalues of (default mixing * dielectric matrix)
  average eigenvalue GAMMA=   2.3204
  6.8762  3.6197  2.5421  2.4204  1.3857  1.1806  0.9920  0.9336  0.9336

 Free energy of the ion-electron system (eV)
  ---------------------------------------------------
  alpha Z        PSCENC =         0.02803141
  Ewald energy   TEWEN  =       121.60220645
  -Hartree energ DENC   =      -515.33168850
  -exchange      EXHF   =         0.00000000
  -V(xc)+E(xc)   XCENC  =        33.61822512
  PAW double counting   =       561.74844348     -563.49229447
  entropy T*S    EENTRO =        -0.00000000
  eigenvalues    EBANDS =      -109.61568132
  atomic energy  EATOM  =       457.26981990
  Solvation  Ediel_sol  =         0.00000000
  ---------------------------------------------------
  free energy    TOTEN  =       -14.17293793 eV

  energy without entropy =      -14.17293793  energy(sigma->0) =      -14.17293793


--------------------------------------------------------------------------------------------------------




--------------------------------------- Iteration      1(  15)  ---------------------------------------


    POTLOK:  cpu time      0.0647: real time      0.0656
    SETDIJ:  cpu time      0.0904: real time      0.0910
     EDDAV:  cpu time      0.2412: real time      0.2440
       DOS:  cpu time      0.0004: real time      0.0004
    CHARGE:  cpu time      0.0642: real time      0.0655
    MIXING:  cpu time      0.0039: real time      0.0040
    --------------------------------------------
      LOOP:  cpu time      0.4649: real time      0.4705

 eigenvalue-minimisations  :    96
 total energy-change (2. order) :-0.4234125E-03  (-0.2116029E-05)
 number of electron       8.0000001 magnetization 
 augmentation part        0.6838113 magnetization 

 Broyden mixing:
  rms(total) = 0.52197E-03    rms(broyden)= 0.52184E-03
  rms(prec ) = 0.72190E-03
  weight for this iteration     100.00

 eigenvalues of (default mixing * dielectric matrix)
  average eigenvalue GAMMA=   2.5051
  7.8116  4.5430  2.9067  2.5318  2.3289  1.1126  0.9298  0.9298  0.9998  0.9572

 Free energy of the ion-electron system (eV)
  ---------------------------------------------------
  alpha Z        PSCENC =         0.02803141
  Ewald energy   TEWEN  =       121.60220645
  -Hartree energ DENC   =      -515.31233351
  -exchange      EXHF   =         0.00000000
  -V(xc)+E(xc)   XCENC  =        33.61691672
  PAW double counting   =       561.66478610     -563.40860645
  entropy T*S    EENTRO =        -0.00000000
  eigenvalues    EBANDS =      -109.63418196
  atomic energy  EATOM  =       457.26981990
  Solvation  Ediel_sol  =         0.00000000
  ---------------------------------------------------
  free energy    TOTEN  =       -14.17336134 eV

  energy without entropy =      -14.17336134  energy(sigma->0) =      -14.17336134


--------------------------------------------------------------------------------------------------------




--------------------------------------- Iteration      1(  16)  ---------------------------------------


    POTLOK:  cpu time      0.0653: real time      0.0658
    SETDIJ:  cpu time      0.0903: real time      0.0910
     EDDAV:  cpu time      0.3228: real time      0.3262
       DOS:  cpu time      0.0004: real time      0.0004
    CHARGE:  cpu time      0.0639: real time      0.0652
    MIXING:  cpu time      0.0039: real time      0.0040
    --------------------------------------------
      LOOP:  cpu time      0.5467: real time      0.5525

 eigenvalue-minimisations  :   128
 total energy-change (2. order) :-0.2847173E-03  (-0.1785125E-05)
 number of electron       8.0000001 magnetization 
 augmentation part        0.6837280 magnetization 

 Broyden mixing:
  rms(total) = 0.19097E-03    rms(broyden)= 0.19077E-03
  rms(prec ) = 0.29831E-03
  weight for this iteration     100.00

 eigenvalues of (default mixing * dielectric matrix)
  average eigenvalue GAMMA=   2.6966
  8.5070  5.2468  3.6939  2.7239  2.4884  2.0656  1.1163  1.0312  0.9283  0.9283
  0.9330

 Free energy of the ion-electron system (eV)
  ---------------------------------------------------
  alpha Z        PSCENC =         0.02803141
  Ewald energy   TEWEN  =       121.60220645
  -Hartree energ DENC   =      -515.32160362
  -exchange      EXHF   =         0.00000000
  -V(xc)+E(xc)   XCENC  =        33.61701586
  PAW double counting   =       561.60675657     -563.35066789
  entropy T*S    EENTRO =        -0.00000000
  eigenvalues    EBANDS =      -109.62520473
  atomic energy  EATOM  =       457.26981990
  Solvation  Ediel_sol  =         0.00000000
  ---------------------------------------------------
  free energy    TOTEN  =       -14.17364606 eV

  energy without entropy =      -14.17364606  energy(sigma->0) =      -14.17364606


--------------------------------------------------------------------------------------------------------




--------------------------------------- Iteration      1(  17)  ---------------------------------------


    POTLOK:  cpu time      0.0658: real time      0.0664
    SETDIJ:  cpu time      0.0903: real time      0.0910
     EDDAV:  cpu time      0.3159: real time      0.3201
       DOS:  cpu time      0.0004: real time      0.0004
    CHARGE:  cpu time      0.0631: real time      0.0646
    MIXING:  cpu time      0.0040: real time      0.0041
    --------------------------------------------
      LOOP:  cpu time      0.5396: real time      0.5465

 eigenvalue-minimisations  :   128
 total energy-change (2. order) :-0.1518784E-03  (-0.5358476E-06)
 number of electron       8.0000001 magnetization 
 augmentation part        0.6837550 magnetization 

 Broyden mixing:
  rms(total) = 0.11734E-03    rms(broyden)= 0.11723E-03
  rms(prec ) = 0.14737E-03
  weight for this iteration     100.00

 eigenvalues of (default mixing * dielectric matrix)
  average eigenvalue GAMMA=   2.6673
  8.7273  5.6296  3.8045  2.8021  2.4917  2.4917  0.9251  0.9251  0.9547  1.0238
  1.1162  1.1162

 Free energy of the ion-electron system (eV)
  ---------------------------------------------------
  alpha Z        PSCENC =         0.02803141
  Ewald energy   TEWEN  =       121.60220645
  -Hartree energ DENC   =      -515.32528028
  -exchange      EXHF   =         0.00000000
  -V(xc)+E(xc)   XCENC  =        33.61691616
  PAW double counting   =       561.69028740     -563.43422128
  entropy T*S    EENTRO =        -0.00000000
  eigenvalues    EBANDS =      -109.62155770
  atomic energy  EATOM  =       457.26981990
  Solvation  Ediel_sol  =         0.00000000
  ---------------------------------------------------
  free energy    TOTEN  =       -14.17379794 eV

  energy without entropy =      -14.17379794  energy(sigma->0) =      -14.17379794


--------------------------------------------------------------------------------------------------------




--------------------------------------- Iteration      1(  18)  ---------------------------------------


    POTLOK:  cpu time      0.0711: real time      0.0717
    SETDIJ:  cpu time      0.0905: real time      0.0912
     EDDAV:  cpu time      0.2429: real time      0.2455
       DOS:  cpu time      0.0004: real time      0.0004
    CHARGE:  cpu time      0.0640: real time      0.0652
    MIXING:  cpu time      0.0040: real time      0.0040
    --------------------------------------------
      LOOP:  cpu time      0.4728: real time      0.4779

 eigenvalue-minimisations  :    96
 total energy-change (2. order) :-0.3317643E-04  (-0.3251684E-07)
 number of electron       8.0000001 magnetization 
 augmentation part        0.6837397 magnetization 

 Broyden mixing:
  rms(total) = 0.64120E-04    rms(broyden)= 0.63988E-04
  rms(prec ) = 0.80328E-04
  weight for this iteration     100.00

 eigenvalues of (default mixing * dielectric matrix)
  average eigenvalue GAMMA=   2.7579
  9.2163  6.0948  4.3017  3.0958  2.4375  2.4375  2.3809  1.1185  1.0233  0.9261
  0.9261  0.9471  0.9471

 Free energy of the ion-electron system (eV)
  ---------------------------------------------------
  alpha Z        PSCENC =         0.02803141
  Ewald energy   TEWEN  =       121.60220645
  -Hartree energ DENC   =      -515.32764573
  -exchange      EXHF   =         0.00000000
  -V(xc)+E(xc)   XCENC  =        33.61699139
  PAW double counting   =       561.68424061     -563.42821253
  entropy T*S    EENTRO =        -0.00000000
  eigenvalues    EBANDS =      -109.61926261
  atomic energy  EATOM  =       457.26981990
  Solvation  Ediel_sol  =         0.00000000
  ---------------------------------------------------
  free energy    TOTEN  =       -14.17383111 eV

  energy without entropy =      -14.17383111  energy(sigma->0) =      -14.17383111


--------------------------------------------------------------------------------------------------------




--------------------------------------- Iteration      1(  19)  ---------------------------------------


    POTLOK:  cpu time      0.0663: real time      0.0672
    SETDIJ:  cpu time      0.0902: real time      0.0911
     EDDAV:  cpu time      0.2393: real time      0.2420
       DOS:  cpu time      0.0004: real time      0.0004
    CHARGE:  cpu time      0.0642: real time      0.0655
    MIXING:  cpu time      0.0039: real time      0.0039
    --------------------------------------------
      LOOP:  cpu time      0.4644: real time      0.4702

 eigenvalue-minimisations  :    96
 total energy-change (2. order) :-0.2427872E-04  (-0.2539376E-07)
 number of electron       8.0000001 magnetization 
 augmentation part        0.6837319 magnetization 

 Broyden mixing:
  rms(total) = 0.48944E-04    rms(broyden)= 0.48770E-04
  rms(prec ) = 0.55666E-04
  weight for this iteration     100.00

 eigenvalues of (default mixing * dielectric matrix)
  average eigenvalue GAMMA=   2.7729
  9.4431  6.6006  4.6363  3.4381  2.7739  2.4134  2.3173  1.2651  1.1254  0.9259
  0.9259  1.0124  1.0124  0.9311

 Free energy of the ion-electron system (eV)
  ---------------------------------------------------
  alpha Z        PSCENC =         0.02803141
  Ewald energy   TEWEN  =       121.60220645
  -Hartree energ DENC   =      -515.32985043
  -exchange      EXHF   =         0.00000000
  -V(xc)+E(xc)   XCENC  =        33.61709263
  PAW double counting   =       561.67903953     -563.42301198
  entropy T*S    EENTRO =        -0.00000000
  eigenvalues    EBANDS =      -109.61718290
  atomic energy  EATOM  =       457.26981990
  Solvation  Ediel_sol  =         0.00000000
  ---------------------------------------------------
  free energy    TOTEN  =       -14.17385539 eV

  energy without entropy =      -14.17385539  energy(sigma->0) =      -14.17385539


--------------------------------------------------------------------------------------------------------




--------------------------------------- Iteration      1(  20)  ---------------------------------------


    POTLOK:  cpu time      0.0649: real time      0.0663
    SETDIJ:  cpu time      0.0908: real time      0.0914
     EDDAV:  cpu time      0.2399: real time      0.2426
       DOS:  cpu time      0.0013: real time      0.0014
    CHARGE:  cpu time      0.0635: real time      0.0647
    MIXING:  cpu time      0.0052: real time      0.0053
    --------------------------------------------
      LOOP:  cpu time      0.4657: real time      0.4717

 eigenvalue-minimisations  :    96
 total energy-change (2. order) :-0.5968141E-05  (-0.7281262E-08)
 number of electron       8.0000001 magnetization 
 augmentation part        0.6837406 magnetization 

 Broyden mixing:
  rms(total) = 0.16680E-04    rms(broyden)= 0.16232E-04
  rms(prec ) = 0.19948E-04
  weight for this iteration     100.00

 eigenvalues of (default mixing * dielectric matrix)
  average eigenvalue GAMMA=   2.8597
  9.6803  7.0341  5.0008  3.8701  3.0361  2.6001  2.4943  2.2457  1.1269  0.9259
  0.9259  0.9361  1.0114  1.0114  0.9963

 Free energy of the ion-electron system (eV)
  ---------------------------------------------------
  alpha Z        PSCENC =         0.02803141
  Ewald energy   TEWEN  =       121.60220645
  -Hartree energ DENC   =      -515.32864859
  -exchange      EXHF   =         0.00000000
  -V(xc)+E(xc)   XCENC  =        33.61702052
  PAW double counting   =       561.67487001     -563.41882015
  entropy T*S    EENTRO =        -0.00000000
  eigenvalues    EBANDS =      -109.61834092
  atomic energy  EATOM  =       457.26981990
  Solvation  Ediel_sol  =         0.00000000
  ---------------------------------------------------
  free energy    TOTEN  =       -14.17386136 eV

  energy without entropy =      -14.17386136  energy(sigma->0) =      -14.17386136


--------------------------------------------------------------------------------------------------------




--------------------------------------- Iteration      1(  21)  ---------------------------------------


    POTLOK:  cpu time      0.0811: real time      0.0820
    SETDIJ:  cpu time      0.1251: real time      0.1259
     EDDAV:  cpu time      0.2366: real time      0.2398
       DOS:  cpu time      0.0006: real time      0.0006
    CHARGE:  cpu time      0.0640: real time      0.0652
    MIXING:  cpu time      0.0046: real time      0.0046
    --------------------------------------------
      LOOP:  cpu time      0.5120: real time      0.5181

 eigenvalue-minimisations  :    96
 total energy-change (2. order) :-0.3280284E-05  (-0.2239686E-08)
 number of electron       8.0000001 magnetization 
 augmentation part        0.6837389 magnetization 

 Broyden mixing:
  rms(total) = 0.71730E-05    rms(broyden)= 0.61280E-05
  rms(prec ) = 0.77749E-05
  weight for this iteration     100.00
  WARNING: grid for Broyden might be to small

 eigenvalues of (default mixing * dielectric matrix)
  average eigenvalue GAMMA=   2.8644
  9.7430  7.2270  5.1012  4.2340  3.0662  2.9175  2.4118  2.4118  1.8112  1.1278
  0.9258  0.9258  1.0089  1.0089  0.9406  0.9692

 Free energy of the ion-electron system (eV)
  ---------------------------------------------------
  alpha Z        PSCENC =         0.02803141
  Ewald energy   TEWEN  =       121.60220645
  -Hartree energ DENC   =      -515.32845299
  -exchange      EXHF   =         0.00000000
  -V(xc)+E(xc)   XCENC  =        33.61700111
  PAW double counting   =       561.67621247     -563.42017101
  entropy T*S    EENTRO =        -0.00000000
  eigenvalues    EBANDS =      -109.61851198
  atomic energy  EATOM  =       457.26981990
  Solvation  Ediel_sol  =         0.00000000
  ---------------------------------------------------
  free energy    TOTEN  =       -14.17386464 eV

  energy without entropy =      -14.17386464  energy(sigma->0) =      -14.17386464


--------------------------------------------------------------------------------------------------------




--------------------------------------- Iteration      1(  22)  ---------------------------------------


    POTLOK:  cpu time      0.0660: real time      0.0669
    SETDIJ:  cpu time      0.0902: real time      0.0910
     EDDAV:  cpu time      0.1724: real time      0.1742
       DOS:  cpu time      0.0005: real time      0.0005
    CHARGE:  cpu time      0.0649: real time      0.0661
    MIXING:  cpu time      0.0045: real time      0.0045
    --------------------------------------------
      LOOP:  cpu time      0.3984: real time      0.4032

 eigenvalue-minimisations  :    64
 total energy-change (2. order) :-0.7572044E-06  (-0.3466809E-09)
 number of electron       8.0000001 magnetization 
 augmentation part        0.6837402 magnetization 

 Broyden mixing:
  rms(total) = 0.56677E-05    rms(broyden)= 0.42694E-05
  rms(prec ) = 0.53214E-05
  weight for this iteration     100.00
  WARNING: grid for Broyden might be to small

 eigenvalues of (default mixing * dielectric matrix)
  average eigenvalue GAMMA=   2.8502
  9.7759  7.3358  5.3670  4.3244  3.4362  2.7784  2.5964  2.5324  2.3004  0.9255
  0.9255  1.1229  1.0997  0.9381  1.0006  1.0006  0.9931

 Free energy of the ion-electron system (eV)
  ---------------------------------------------------
  alpha Z        PSCENC =         0.02803141
  Ewald energy   TEWEN  =       121.60220645
  -Hartree energ DENC   =      -515.32819293
  -exchange      EXHF   =         0.00000000
  -V(xc)+E(xc)   XCENC  =        33.61698704
  PAW double counting   =       561.67695728     -563.42091303
  entropy T*S    EENTRO =        -0.00000000
  eigenvalues    EBANDS =      -109.61876152
  atomic energy  EATOM  =       457.26981990
  Solvation  Ediel_sol  =         0.00000000
  ---------------------------------------------------
  free energy    TOTEN  =       -14.17386540 eV

  energy without entropy =      -14.17386540  energy(sigma->0) =      -14.17386540


--------------------------------------------------------------------------------------------------------




--------------------------------------- Iteration      1(  23)  ---------------------------------------


    POTLOK:  cpu time      0.0669: real time      0.0680
    SETDIJ:  cpu time      0.0896: real time      0.0903
     EDDAV:  cpu time      0.6199: real time      0.6240
       DOS:  cpu time      0.0066: real time      0.0067
    CHARGE:  cpu time      0.1278: real time      0.1292
    MIXING:  cpu time      0.0337: real time      0.0339
    --------------------------------------------
      LOOP:  cpu time      0.9445: real time      0.9521

 eigenvalue-minimisations  :   128
 total energy-change (2. order) :-0.4160393E-06  (-0.1657749E-09)
 number of electron       8.0000001 magnetization 
 augmentation part        0.6837395 magnetization 

 Broyden mixing:
  rms(total) = 0.40384E-05    rms(broyden)= 0.15630E-05
  rms(prec ) = 0.20389E-05
  weight for this iteration     100.00
  WARNING: grid for Broyden might be to small

 eigenvalues of (default mixing * dielectric matrix)
  average eigenvalue GAMMA=   2.8331
  9.7973  7.4602  5.5781  4.5469  3.5855  2.9112  2.6427  2.5195  2.2913  1.7490
  1.1283  0.9254  0.9254  1.0363  0.9396  0.9958  0.9818  0.9818

 Free energy of the ion-electron system (eV)
  ---------------------------------------------------
  alpha Z        PSCENC =         0.02803141
  Ewald energy   TEWEN  =       121.60220645
  -Hartree energ DENC   =      -515.32839605
  -exchange      EXHF   =         0.00000000
  -V(xc)+E(xc)   XCENC  =        33.61699787
  PAW double counting   =       561.67618670     -563.42014259
  entropy T*S    EENTRO =        -0.00000000
  eigenvalues    EBANDS =      -109.61856951
  atomic energy  EATOM  =       457.26981990
  Solvation  Ediel_sol  =         0.00000000
  ---------------------------------------------------
  free energy    TOTEN  =       -14.17386581 eV

  energy without entropy =      -14.17386581  energy(sigma->0) =      -14.17386581


--------------------------------------------------------------------------------------------------------




--------------------------------------- Iteration      1(  24)  ---------------------------------------


    POTLOK:  cpu time      0.2188: real time      0.2203
    SETDIJ:  cpu time      0.1243: real time      0.1252
     EDDAV:  cpu time      0.2925: real time      0.2953
       DOS:  cpu time      0.0009: real time      0.0009
    CHARGE:  cpu time      0.0650: real time      0.0662
    MIXING:  cpu time      0.0045: real time      0.0045
    --------------------------------------------
      LOOP:  cpu time      0.7059: real time      0.7124

 eigenvalue-minimisations  :    96
 total energy-change (2. order) :-0.1662600E-06  (-0.3381473E-10)
 number of electron       8.0000001 magnetization 
 augmentation part        0.6837390 magnetization 

 Broyden mixing:
  rms(total) = 0.42976E-05    rms(broyden)= 0.21456E-05
  rms(prec ) = 0.24163E-05
  weight for this iteration     100.00
  WARNING: grid for Broyden might be to small

 eigenvalues of (default mixing * dielectric matrix)
  average eigenvalue GAMMA=   2.8320
  9.8236  7.6037  6.0389  4.7607  3.8632  2.9923  2.7349  2.4374  2.2172  2.2172
  1.1517  1.1517  0.9256  0.9256  1.0609  1.0013  1.0013  0.9471  0.9536

 Free energy of the ion-electron system (eV)
  ---------------------------------------------------
  alpha Z        PSCENC =         0.02803141
  Ewald energy   TEWEN  =       121.60220645
  -Hartree energ DENC   =      -515.32846926
  -exchange      EXHF   =         0.00000000
  -V(xc)+E(xc)   XCENC  =        33.61700183
  PAW double counting   =       561.67632704     -563.42028401
  entropy T*S    EENTRO =        -0.00000000
  eigenvalues    EBANDS =      -109.61849934
  atomic energy  EATOM  =       457.26981990
  Solvation  Ediel_sol  =         0.00000000
  ---------------------------------------------------
  free energy    TOTEN  =       -14.17386598 eV

  energy without entropy =      -14.17386598  energy(sigma->0) =      -14.17386598


--------------------------------------------------------------------------------------------------------




--------------------------------------- Iteration      1(  25)  ---------------------------------------


    POTLOK:  cpu time      0.0671: real time      0.0677
    SETDIJ:  cpu time      0.0900: real time      0.0907
     EDDAV:  cpu time      0.3213: real time      0.3246
       DOS:  cpu time      0.0003: real time      0.0003
    CHARGE:  cpu time      0.0645: real time      0.0658
    MIXING:  cpu time      0.0047: real time      0.0047
    --------------------------------------------
      LOOP:  cpu time      0.5479: real time      0.5538

 eigenvalue-minimisations  :   128
 total energy-change (2. order) :-0.7536971E-07  (-0.1977440E-10)
 number of electron       8.0000001 magnetization 
 augmentation part        0.6837395 magnetization 

 Broyden mixing:
  rms(total) = 0.38219E-05    rms(broyden)= 0.86412E-06
  rms(prec ) = 0.98913E-06
  weight for this iteration     100.00
  WARNING: grid for Broyden might be to small

 eigenvalues of (default mixing * dielectric matrix)
  average eigenvalue GAMMA=   2.8860
  9.8526  7.8661  6.5201  4.9999  4.1478  3.3633  2.8583  2.5296  2.5296  2.2612
  1.7771  0.9257  0.9257  1.1084  1.0942  0.9404  1.0222  1.0222  0.9875  0.9875

 Free energy of the ion-electron system (eV)
  ---------------------------------------------------
  alpha Z        PSCENC =         0.02803141
  Ewald energy   TEWEN  =       121.60220645
  -Hartree energ DENC   =      -515.32840340
  -exchange      EXHF   =         0.00000000
  -V(xc)+E(xc)   XCENC  =        33.61699795
  PAW double counting   =       561.67634631     -563.42030243
  entropy T*S    EENTRO =        -0.00000000
  eigenvalues    EBANDS =      -109.61856225
  atomic energy  EATOM  =       457.26981990
  Solvation  Ediel_sol  =         0.00000000
  ---------------------------------------------------
  free energy    TOTEN  =       -14.17386606 eV

  energy without entropy =      -14.17386606  energy(sigma->0) =      -14.17386606


--------------------------------------------------------------------------------------------------------




--------------------------------------- Iteration      1(  26)  ---------------------------------------


    POTLOK:  cpu time      0.0759: real time      0.0765
    SETDIJ:  cpu time      0.0898: real time      0.0904
     EDDAV:  cpu time      0.1669: real time      0.1688
       DOS:  cpu time      0.0010: real time      0.0010
    CHARGE:  cpu time      0.0649: real time      0.0661
    MIXING:  cpu time      0.0050: real time      0.0051
    --------------------------------------------
      LOOP:  cpu time      0.4035: real time      0.4079

 eigenvalue-minimisations  :    64
 total energy-change (2. order) :-0.5736592E-07  (-0.1405098E-10)
 number of electron       8.0000001 magnetization 
 augmentation part        0.6837393 magnetization 

 Broyden mixing:
  rms(total) = 0.37707E-05    rms(broyden)= 0.59981E-06
  rms(prec ) = 0.66088E-06
  weight for this iteration     100.00
  WARNING: grid for Broyden might be to small

 eigenvalues of (default mixing * dielectric matrix)
  average eigenvalue GAMMA=   2.8575
  9.8652  8.0359  6.7432  5.1142  4.2497  3.5082  2.8747  2.6824  2.4721  2.2481
  1.9336  1.3651  1.1252  0.9258  0.9258  1.0397  0.9398  0.9855  0.9855  0.9942
  0.9942

 Free energy of the ion-electron system (eV)
  ---------------------------------------------------
  alpha Z        PSCENC =         0.02803141
  Ewald energy   TEWEN  =       121.60220645
  -Hartree energ DENC   =      -515.32842517
  -exchange      EXHF   =         0.00000000
  -V(xc)+E(xc)   XCENC  =        33.61699909
  PAW double counting   =       561.67639766     -563.42035437
  entropy T*S    EENTRO =        -0.00000000
  eigenvalues    EBANDS =      -109.61854109
  atomic energy  EATOM  =       457.26981990
  Solvation  Ediel_sol  =         0.00000000
  ---------------------------------------------------
  free energy    TOTEN  =       -14.17386611 eV

  energy without entropy =      -14.17386611  energy(sigma->0) =      -14.17386611


--------------------------------------------------------------------------------------------------------




--------------------------------------- Iteration      1(  27)  ---------------------------------------


    POTLOK:  cpu time      0.0684: real time      0.0695
    SETDIJ:  cpu time      0.0895: real time      0.0902
     EDDAV:  cpu time      0.2387: real time      0.2412
       DOS:  cpu time      0.0009: real time      0.0009
    CHARGE:  cpu time      0.0638: real time      0.0650
    MIXING:  cpu time      0.0050: real time      0.0050
    --------------------------------------------
      LOOP:  cpu time      0.4663: real time      0.4719

 eigenvalue-minimisations  :    96
 total energy-change (2. order) :-0.1052240E-07  (-0.8885337E-11)
 number of electron       8.0000001 magnetization 
 augmentation part        0.6837394 magnetization 

 Broyden mixing:
  rms(total) = 0.37253E-05    rms(broyden)= 0.13972E-06
  rms(prec ) = 0.18041E-06
  weight for this iteration     100.00
  WARNING: grid for Broyden might be to small

 eigenvalues of (default mixing * dielectric matrix)
  average eigenvalue GAMMA=   2.8950
  9.8813  8.2277  6.9470  5.2659  4.4684  3.7111  3.1151  2.7927  2.6110  2.4694
  2.2458  1.8455  1.1884  1.1284  0.9258  0.9258  1.0453  0.9413  0.9737  0.9737
  1.0029  1.0029

 Free energy of the ion-electron system (eV)
  ---------------------------------------------------
  alpha Z        PSCENC =         0.02803141
  Ewald energy   TEWEN  =       121.60220645
  -Hartree energ DENC   =      -515.32840844
  -exchange      EXHF   =         0.00000000
  -V(xc)+E(xc)   XCENC  =        33.61699817
  PAW double counting   =       561.67638090     -563.42033738
  entropy T*S    EENTRO =        -0.00000000
  eigenvalues    EBANDS =      -109.61855714
  atomic energy  EATOM  =       457.26981990
  Solvation  Ediel_sol  =         0.00000000
  ---------------------------------------------------
  free energy    TOTEN  =       -14.17386612 eV

  energy without entropy =      -14.17386612  energy(sigma->0) =      -14.17386612


--------------------------------------------------------------------------------------------------------




--------------------------------------- Iteration      1(  28)  ---------------------------------------


    POTLOK:  cpu time      0.0676: real time      0.0682
    SETDIJ:  cpu time      0.0898: real time      0.0904
     EDDAV:  cpu time      0.1688: real time      0.1707
       DOS:  cpu time      0.0007: real time      0.0007
    --------------------------------------------
      LOOP:  cpu time      0.3269: real time      0.3301

 eigenvalue-minimisations  :    64
 total energy-change (2. order) :-0.6054165E-08  (-0.1019096E-10)
 number of electron       8.0000001 magnetization 
 augmentation part        0.6837394 magnetization 

 Free energy of the ion-electron system (eV)
  ---------------------------------------------------
  alpha Z        PSCENC =         0.02803141
  Ewald energy   TEWEN  =       121.60220645
  -Hartree energ DENC   =      -515.32840396
  -exchange      EXHF   =         0.00000000
  -V(xc)+E(xc)   XCENC  =        33.61699794
  PAW double counting   =       561.67636408     -563.42032048
  entropy T*S    EENTRO =        -0.00000000
  eigenvalues    EBANDS =      -109.61856148
  atomic energy  EATOM  =       457.26981990
  Solvation  Ediel_sol  =         0.00000000
  ---------------------------------------------------
  free energy    TOTEN  =       -14.17386613 eV

  energy without entropy =      -14.17386613  energy(sigma->0) =      -14.17386613


--------------------------------------------------------------------------------------------------------




 average (electrostatic) potential at core
  the test charge radii are     0.5201  0.7215
  (the norm of the test charge is              1.0000)
       1 -44.8387       2 -44.8371       3 -80.7502



 E-fermi :  -7.1173     XC(G=0):  -0.1047     alpha+bet : -0.0163

 val. band max:       -7.1710389165   @ k =   0.0000   0.0000   0.0000
 cond. band min:      -1.0687474402   @ k =   0.0000   0.0000   0.0000
 fundamental gap:      6.1022914763
 Fermi energy:        -7.1172770172

 k-point     1 :       0.0000    0.0000    0.0000
  band No.  band energies     occupation 
      1     -25.3334      2.00000
      2     -13.0426      2.00000
      3      -9.2623      2.00000
      4      -7.1710      2.00000
      5      -1.0687      0.00000
      6       0.0115      0.00000
      7       0.1968      0.00000
      8       0.2970      0.00000
      9       0.3120      0.00000
     10       0.3411      0.00000
     11       0.3480      0.00000
     12       0.4622      0.00000
     13       0.4973      0.00000
     14       0.6014      0.00000
     15       0.6226      0.00000
     16       0.7074      0.00000
     17       0.7080      0.00000
     18       0.7134      0.00000
     19       0.7173      0.00000
     20       0.7216      0.00000
     21       0.7293      0.00000
     22       0.7314      0.00000
     23       0.7371      0.00000
     24       0.9374      0.00000
     25       0.9381      0.00000
     26       1.0201      0.00000
     27       1.0344      0.00000
     28       1.0811      0.00000
     29       1.0851      0.00000
     30       1.0879      0.00000
     31       1.1046      0.00000
     32       1.2530      0.00000


--------------------------------------------------------------------------------------------------------


 soft charge-density along one line, spin component           1
         0         1         2         3         4         5         6         7         8         9
 total charge-density along one line

 pseudopotential strength for first ion, spin component:           1
 -2.379  -4.110  -0.023   0.000   0.002
 -4.110  -7.012  -0.042   0.000   0.005
 -0.023  -0.042  -0.283  -0.000  -0.005
  0.000   0.000  -0.000  -0.327  -0.000
  0.002   0.005  -0.005  -0.000  -0.325
 total augmentation occupancy for first ion, spin component:           1
  3.966  -0.866   0.708  -0.000  -0.104
 -0.866   0.236  -0.151   0.000   0.027
  0.708  -0.151   0.127  -0.000  -0.017
 -0.000   0.000  -0.000   0.038  -0.000
 -0.104   0.027  -0.017  -0.000   0.027


------------------------ aborting loop because EDIFF is reached ----------------------------------------


    CHARGE:  cpu time      0.0671: real time      0.0678
    FORLOC:  cpu time      0.0019: real time      0.0019
    FORNL :  cpu time      0.2443: real time      0.2484
    STRESS:  cpu time      1.4978: real time      1.5116
    FORCOR:  cpu time      0.0575: real time      0.0580
    FORHAR:  cpu time      0.0150: real time      0.0155
    MIXING:  cpu time      0.0035: real time      0.0035
    OFIELD:  cpu time      0.0000: real time      0.0000

 ---------------------------------------------------------------------------------------------

         DFTD3 V3.0 Rev 1        
 DF rpbe      
 parameters
 rs18     =    1.0000
 alpha6   =   14.0000
 alpha8   =   16.0000
 k1-k3    =   16.0000    1.3333   -4.0000
 Edisp (eV)   -0.00134

 E6    (eV) :    -0.0013
 E8    (eV) :    -0.0001
 % E8        :  5.25
    FORVDW:  cpu time      0.0173: real time      0.0189

  FORCE on cell =-STRESS in cart. coord.  units (eV):
  Direction    XX          YY          ZZ          XY          YZ          ZX
  --------------------------------------------------------------------------------------
  Alpha Z     0.02803     0.02803     0.02803
  Ewald      57.31500    86.10378   -21.81653    22.24759    -0.00009     0.00019
  Hartree   174.88145   179.84516   160.60181     3.82859    -0.00002     0.00003
  E(xc)     -36.31414   -36.17192   -36.76934     0.11029    -0.00000     0.00000
  Local    -317.87202  -343.51969  -248.64860   -19.80231     0.00007    -0.00016
  n-local   -30.68151   -30.21105   -30.81333     0.36385    -0.00000     0.00000
  augment     6.44674     5.93538     8.08500    -0.39656     0.00000    -0.00000
  Kinetic   145.44693   137.28025   168.50324    -6.32539     0.00002    -0.00006
  Fock        0.00000     0.00000     0.00000     0.00000     0.00000     0.00000
  vdW         0.00263     0.00800    -0.00000     0.00416     0.00000     0.00000
  -------------------------------------------------------------------------------------
  Total      -0.74688    -0.70207    -0.82973     0.03022     0.00000     0.00000
  in kB      -0.14958    -0.14060    -0.16617     0.00605     0.00000     0.00000
  external pressure =       -0.15 kB  Pullay stress =        0.00 kB


 VOLUME and BASIS-vectors are now :
 -----------------------------------------------------------------------------
  energy-cutoff  :      400.00
  volume of cell :     8000.00
      direct lattice vectors                 reciprocal lattice vectors
    20.000000000  0.000000000  0.000000000     0.050000000  0.000000000  0.000000000
     0.000000000 20.000000000  0.000000000     0.000000000  0.050000000  0.000000000
     0.000000000  0.000000000 20.000000000     0.000000000  0.000000000  0.050000000

  length of vectors
    20.000000000 20.000000000 20.000000000     0.050000000  0.050000000  0.050000000


 FORCES acting on ions
    electron-ion (+dipol)            ewald-force                    non-local-force                 convergence-correction
 -----------------------------------------------------------------------------------------------
   -.108E+02 0.871E+02 -.149E-03   0.118E+02 -.953E+02 0.163E-03   -.105E+01 0.819E+01 -.130E-04   0.303E-06 -.102E-05 0.180E-09
   -.791E+02 -.382E+02 -.164E-03   0.865E+02 0.418E+02 0.180E-03   -.745E+01 -.356E+01 -.159E-04   0.103E-05 0.350E-06 0.449E-09
   0.552E+02 -.300E+02 0.196E-03   -.983E+02 0.536E+02 -.343E-03   0.432E+02 -.235E+02 0.148E-03   0.274E-05 -.110E-05 0.611E-12
 -----------------------------------------------------------------------------------------------
   -.347E+02 0.189E+02 -.117E-03   0.142E-13 0.000E+00 0.396E-17   0.347E+02 -.189E+02 0.119E-03   0.408E-05 -.177E-05 0.630E-09


 POSITION                                       TOTAL-FORCE (eV/Angst)
 -----------------------------------------------------------------------------------
      9.80755      9.62347     10.00000        -0.000311      0.000884      0.000000
     10.54234     10.97263     10.00000         0.000307     -0.000451     -0.000000
      9.65011     10.58390     10.00000         0.000004     -0.000434     -0.000000
 -----------------------------------------------------------------------------------
    total drift:                               -0.008797      0.004983      0.000001


--------------------------------------------------------------------------------------------------------



  FREE ENERGIE OF THE ION-ELECTRON SYSTEM (eV)
  ---------------------------------------------------
  free  energy   TOTEN  =       -14.17521005 eV

  energy  without entropy=      -14.17521005  energy(sigma->0) =      -14.17521005



--------------------------------------------------------------------------------------------------------


    POTLOK:  cpu time      0.1559: real time      0.1571


--------------------------------------------------------------------------------------------------------


 Finite differences:
   Step               POTIM =    2.0000000000000000E-002
   Degrees of freedom DOF   =            9
    WAVPRE:  cpu time      0.0107: real time      0.0139
    FEWALD:  cpu time      0.0004: real time      0.0003
    ORTHCH:  cpu time      0.0143: real time      0.0145
     LOOP+:  cpu time     15.7964: real time     15.9839


--------------------------------------- Ionic step        2  -------------------------------------------




--------------------------------------- Iteration      2(   1)  ---------------------------------------


    POTLOK:  cpu time      0.0644: real time      0.0656
    SETDIJ:  cpu time      0.0889: real time      0.0897
     EDDAV:  cpu time      0.1726: real time      0.1744
       DOS:  cpu time      0.0005: real time      0.0005
    CHARGE:  cpu time      0.0632: real time      0.0646
    MIXING:  cpu time      0.0027: real time      0.0027
    --------------------------------------------
      LOOP:  cpu time      0.3924: real time      0.3975

 eigenvalue-minimisations  :    64
 total energy-change (2. order) : 0.1154722E-02  (-0.1287128E-01)
 number of electron       8.0000001 magnetization 
 augmentation part        0.6812838 magnetization 

 Broyden mixing:
  rms(total) = 0.11167E-01    rms(broyden)= 0.11122E-01
  rms(prec ) = 0.11560E-01
  weight for this iteration     100.00

 Free energy of the ion-electron system (eV)
  ---------------------------------------------------
  alpha Z        PSCENC =         0.02803141
  Ewald energy   TEWEN  =       121.34815094
  -Hartree energ DENC   =      -515.20516577
  -exchange      EXHF   =         0.00000000
  -V(xc)+E(xc)   XCENC  =        33.61190906
  PAW double counting   =       561.67636272     -563.42031917
  entropy T*S    EENTRO =        -0.00000000
  eigenvalues    EBANDS =      -109.48150049
  atomic energy  EATOM  =       457.26981990
  Solvation  Ediel_sol  =         0.00000000
  ---------------------------------------------------
  free energy    TOTEN  =       -14.17271140 eV

  energy without entropy =      -14.17271140  energy(sigma->0) =      -14.17271140


--------------------------------------------------------------------------------------------------------




--------------------------------------- Iteration      2(   2)  ---------------------------------------


    POTLOK:  cpu time      0.0655: real time      0.0664
    SETDIJ:  cpu time      0.0901: real time      0.0908
     EDDAV:  cpu time      0.2361: real time      0.2385
       DOS:  cpu time      0.0007: real time      0.0007
    CHARGE:  cpu time      0.0643: real time      0.0655
    MIXING:  cpu time      0.0029: real time      0.0030
    --------------------------------------------
      LOOP:  cpu time      0.4596: real time      0.4649

 eigenvalue-minimisations  :    96
 total energy-change (2. order) : 0.2698122E-04  (-0.8448624E-04)
 number of electron       8.0000001 magnetization 
 augmentation part        0.6821894 magnetization 

 Broyden mixing:
  rms(total) = 0.62934E-02    rms(broyden)= 0.62881E-02
  rms(prec ) = 0.65030E-02
  weight for this iteration     100.00

 eigenvalues of (default mixing * dielectric matrix)
  average eigenvalue GAMMA=   1.6555
  1.6555

 Free energy of the ion-electron system (eV)
  ---------------------------------------------------
  alpha Z        PSCENC =         0.02803141
  Ewald energy   TEWEN  =       121.34815094
  -Hartree energ DENC   =      -515.08690359
  -exchange      EXHF   =         0.00000000
  -V(xc)+E(xc)   XCENC  =        33.60523549
  PAW double counting   =       560.99358862     -562.73354969
  entropy T*S    EENTRO =        -0.00000000
  eigenvalues    EBANDS =      -109.59705750
  atomic energy  EATOM  =       457.26981990
  Solvation  Ediel_sol  =         0.00000000
  ---------------------------------------------------
  free energy    TOTEN  =       -14.17268442 eV

  energy without entropy =      -14.17268442  energy(sigma->0) =      -14.17268442


--------------------------------------------------------------------------------------------------------




--------------------------------------- Iteration      2(   3)  ---------------------------------------


    POTLOK:  cpu time      0.0671: real time      0.0676
    SETDIJ:  cpu time      0.0903: real time      0.0910
     EDDAV:  cpu time      0.3190: real time      0.3222
       DOS:  cpu time      0.0007: real time      0.0007
    CHARGE:  cpu time      0.0653: real time      0.0665
    MIXING:  cpu time      0.0029: real time      0.0029
    --------------------------------------------
      LOOP:  cpu time      0.5452: real time      0.5510

 eigenvalue-minimisations  :   128
 total energy-change (2. order) :-0.5183103E-04  (-0.2673129E-05)
 number of electron       8.0000001 magnetization 
 augmentation part        0.6822170 magnetization 

 Broyden mixing:
  rms(total) = 0.23839E-02    rms(broyden)= 0.23833E-02
  rms(prec ) = 0.24999E-02
  weight for this iteration     100.00

 eigenvalues of (default mixing * dielectric matrix)
  average eigenvalue GAMMA=   1.7862
  1.0255  2.5469

 Free energy of the ion-electron system (eV)
  ---------------------------------------------------
  alpha Z        PSCENC =         0.02803141
  Ewald energy   TEWEN  =       121.34815094
  -Hartree energ DENC   =      -515.08789531
  -exchange      EXHF   =         0.00000000
  -V(xc)+E(xc)   XCENC  =        33.60514329
  PAW double counting   =       560.61918492     -562.35775870
  entropy T*S    EENTRO =        -0.00000000
  eigenvalues    EBANDS =      -109.59741271
  atomic energy  EATOM  =       457.26981990
  Solvation  Ediel_sol  =         0.00000000
  ---------------------------------------------------
  free energy    TOTEN  =       -14.17273625 eV

  energy without entropy =      -14.17273625  energy(sigma->0) =      -14.17273625


--------------------------------------------------------------------------------------------------------




--------------------------------------- Iteration      2(   4)  ---------------------------------------


    POTLOK:  cpu time      0.0656: real time      0.0662
    SETDIJ:  cpu time      0.0900: real time      0.0907
     EDDAV:  cpu time      0.2351: real time      0.2377
       DOS:  cpu time      0.0008: real time      0.0008
    CHARGE:  cpu time      0.0640: real time      0.0653
    MIXING:  cpu time      0.0022: real time      0.0022
    --------------------------------------------
      LOOP:  cpu time      0.4577: real time      0.4627

 eigenvalue-minimisations  :    96
 total energy-change (2. order) :-0.1274636E-04  (-0.9491212E-06)
 number of electron       8.0000001 magnetization 
 augmentation part        0.6821789 magnetization 

 Broyden mixing:
  rms(total) = 0.31769E-03    rms(broyden)= 0.31718E-03
  rms(prec ) = 0.42998E-03
  weight for this iteration     100.00

 eigenvalues of (default mixing * dielectric matrix)
  average eigenvalue GAMMA=   1.7914
  1.0601  2.6190  1.6951

 Free energy of the ion-electron system (eV)
  ---------------------------------------------------
  alpha Z        PSCENC =         0.02803141
  Ewald energy   TEWEN  =       121.34815094
  -Hartree energ DENC   =      -515.09397781
  -exchange      EXHF   =         0.00000000
  -V(xc)+E(xc)   XCENC  =        33.60542975
  PAW double counting   =       560.40648967     -562.14428654
  entropy T*S    EENTRO =        -0.00000000
  eigenvalues    EBANDS =      -109.59240633
  atomic energy  EATOM  =       457.26981990
  Solvation  Ediel_sol  =         0.00000000
  ---------------------------------------------------
  free energy    TOTEN  =       -14.17274900 eV

  energy without entropy =      -14.17274900  energy(sigma->0) =      -14.17274900


--------------------------------------------------------------------------------------------------------




--------------------------------------- Iteration      2(   5)  ---------------------------------------


    POTLOK:  cpu time      0.0654: real time      0.0660
    SETDIJ:  cpu time      0.0899: real time      0.0906
     EDDAV:  cpu time      0.3181: real time      0.3215
       DOS:  cpu time      0.0006: real time      0.0006
    CHARGE:  cpu time      0.0643: real time      0.0656
    MIXING:  cpu time      0.0031: real time      0.0031
    --------------------------------------------
      LOOP:  cpu time      0.5416: real time      0.5475

 eigenvalue-minimisations  :   128
 total energy-change (2. order) :-0.1945050E-04  (-0.2468488E-06)
 number of electron       8.0000001 magnetization 
 augmentation part        0.6821944 magnetization 

 Broyden mixing:
  rms(total) = 0.15105E-03    rms(broyden)= 0.15082E-03
  rms(prec ) = 0.23647E-03
  weight for this iteration     100.00

 eigenvalues of (default mixing * dielectric matrix)
  average eigenvalue GAMMA=   1.7807
  2.8107  2.4137  0.9791  0.9194

 Free energy of the ion-electron system (eV)
  ---------------------------------------------------
  alpha Z        PSCENC =         0.02803141
  Ewald energy   TEWEN  =       121.34815094
  -Hartree energ DENC   =      -515.08932507
  -exchange      EXHF   =         0.00000000
  -V(xc)+E(xc)   XCENC  =        33.60518065
  PAW double counting   =       560.39612490     -562.13381406
  entropy T*S    EENTRO =        -0.00000000
  eigenvalues    EBANDS =      -109.59693712
  atomic energy  EATOM  =       457.26981990
  Solvation  Ediel_sol  =         0.00000000
  ---------------------------------------------------
  free energy    TOTEN  =       -14.17276845 eV

  energy without entropy =      -14.17276845  energy(sigma->0) =      -14.17276845


--------------------------------------------------------------------------------------------------------




--------------------------------------- Iteration      2(   6)  ---------------------------------------


    POTLOK:  cpu time      0.0635: real time      0.0655
    SETDIJ:  cpu time      0.0902: real time      0.0909
     EDDAV:  cpu time      0.2358: real time      0.2384
       DOS:  cpu time      0.0008: real time      0.0008
    CHARGE:  cpu time      0.0642: real time      0.0654
    MIXING:  cpu time      0.0023: real time      0.0023
    --------------------------------------------
      LOOP:  cpu time      0.4568: real time      0.4634

 eigenvalue-minimisations  :    96
 total energy-change (2. order) :-0.1525760E-04  (-0.1562237E-06)
 number of electron       8.0000001 magnetization 
 augmentation part        0.6821789 magnetization 

 Broyden mixing:
  rms(total) = 0.74914E-04    rms(broyden)= 0.74762E-04
  rms(prec ) = 0.13774E-03
  weight for this iteration     100.00

 eigenvalues of (default mixing * dielectric matrix)
  average eigenvalue GAMMA=   1.9594
  3.2888  2.5274  2.0729  0.9155  0.9925

 Free energy of the ion-electron system (eV)
  ---------------------------------------------------
  alpha Z        PSCENC =         0.02803141
  Ewald energy   TEWEN  =       121.34815094
  -Hartree energ DENC   =      -515.09031786
  -exchange      EXHF   =         0.00000000
  -V(xc)+E(xc)   XCENC  =        33.60523712
  PAW double counting   =       560.40085912     -562.13854221
  entropy T*S    EENTRO =        -0.00000000
  eigenvalues    EBANDS =      -109.59602213
  atomic energy  EATOM  =       457.26981990
  Solvation  Ediel_sol  =         0.00000000
  ---------------------------------------------------
  free energy    TOTEN  =       -14.17278371 eV

  energy without entropy =      -14.17278371  energy(sigma->0) =      -14.17278371


--------------------------------------------------------------------------------------------------------




--------------------------------------- Iteration      2(   7)  ---------------------------------------


    POTLOK:  cpu time      0.0648: real time      0.0659
    SETDIJ:  cpu time      0.0902: real time      0.0908
     EDDAV:  cpu time      0.1690: real time      0.1709
       DOS:  cpu time      0.0006: real time      0.0006
    CHARGE:  cpu time      0.0648: real time      0.0661
    MIXING:  cpu time      0.0029: real time      0.0029
    --------------------------------------------
      LOOP:  cpu time      0.3922: real time      0.3971

 eigenvalue-minimisations  :    64
 total energy-change (2. order) :-0.1633872E-04  (-0.1673410E-06)
 number of electron       8.0000001 magnetization 
 augmentation part        0.6821756 magnetization 

 Broyden mixing:
  rms(total) = 0.46177E-04    rms(broyden)= 0.46013E-04
  rms(prec ) = 0.79892E-04
  weight for this iteration     100.00

 eigenvalues of (default mixing * dielectric matrix)
  average eigenvalue GAMMA=   1.9721
  3.8676  2.6238  2.1695  0.9835  0.9835  1.2044

 Free energy of the ion-electron system (eV)
  ---------------------------------------------------
  alpha Z        PSCENC =         0.02803141
  Ewald energy   TEWEN  =       121.34815094
  -Hartree energ DENC   =      -515.09064699
  -exchange      EXHF   =         0.00000000
  -V(xc)+E(xc)   XCENC  =        33.60524757
  PAW double counting   =       560.39999490     -562.13765169
  entropy T*S    EENTRO =        -0.00000000
  eigenvalues    EBANDS =      -109.59574609
  atomic energy  EATOM  =       457.26981990
  Solvation  Ediel_sol  =         0.00000000
  ---------------------------------------------------
  free energy    TOTEN  =       -14.17280004 eV

  energy without entropy =      -14.17280004  energy(sigma->0) =      -14.17280004


--------------------------------------------------------------------------------------------------------




--------------------------------------- Iteration      2(   8)  ---------------------------------------


    POTLOK:  cpu time      0.0644: real time      0.0654
    SETDIJ:  cpu time      0.0897: real time      0.0904
     EDDAV:  cpu time      0.2348: real time      0.2378
       DOS:  cpu time      0.0008: real time      0.0008
    CHARGE:  cpu time      0.0638: real time      0.0651
    MIXING:  cpu time      0.0034: real time      0.0034
    --------------------------------------------
      LOOP:  cpu time      0.4569: real time      0.4629

 eigenvalue-minimisations  :    96
 total energy-change (2. order) :-0.7492338E-05  (-0.4794966E-07)
 number of electron       8.0000001 magnetization 
 augmentation part        0.6821801 magnetization 

 Broyden mixing:
  rms(total) = 0.24079E-04    rms(broyden)= 0.23757E-04
  rms(prec ) = 0.47578E-04
  weight for this iteration     100.00

 eigenvalues of (default mixing * dielectric matrix)
  average eigenvalue GAMMA=   2.2261
  5.3354  2.7201  2.5507  1.9868  0.9788  0.9788  1.0325

 Free energy of the ion-electron system (eV)
  ---------------------------------------------------
  alpha Z        PSCENC =         0.02803141
  Ewald energy   TEWEN  =       121.34815094
  -Hartree energ DENC   =      -515.08937457
  -exchange      EXHF   =         0.00000000
  -V(xc)+E(xc)   XCENC  =        33.60517545
  PAW double counting   =       560.39886887     -562.13652480
  entropy T*S    EENTRO =        -0.00000000
  eigenvalues    EBANDS =      -109.59695474
  atomic energy  EATOM  =       457.26981990
  Solvation  Ediel_sol  =         0.00000000
  ---------------------------------------------------
  free energy    TOTEN  =       -14.17280754 eV

  energy without entropy =      -14.17280754  energy(sigma->0) =      -14.17280754


--------------------------------------------------------------------------------------------------------




--------------------------------------- Iteration      2(   9)  ---------------------------------------


    POTLOK:  cpu time      0.0644: real time      0.0656
    SETDIJ:  cpu time      0.0903: real time      0.0909
     EDDAV:  cpu time      0.2398: real time      0.2422
       DOS:  cpu time      0.0008: real time      0.0008
    CHARGE:  cpu time      0.0636: real time      0.0649
    MIXING:  cpu time      0.0034: real time      0.0034
    --------------------------------------------
      LOOP:  cpu time      0.4623: real time      0.4679

 eigenvalue-minimisations  :    96
 total energy-change (2. order) :-0.6304525E-05  (-0.4172554E-07)
 number of electron       8.0000001 magnetization 
 augmentation part        0.6821790 magnetization 

 Broyden mixing:
  rms(total) = 0.14451E-04    rms(broyden)= 0.13930E-04
  rms(prec ) = 0.24065E-04
  weight for this iteration     100.00

 eigenvalues of (default mixing * dielectric matrix)
  average eigenvalue GAMMA=   2.2778
  5.9703  3.1439  2.5050  1.8186  1.8186  0.9768  0.9768  1.0127

 Free energy of the ion-electron system (eV)
  ---------------------------------------------------
  alpha Z        PSCENC =         0.02803141
  Ewald energy   TEWEN  =       121.34815094
  -Hartree energ DENC   =      -515.08913790
  -exchange      EXHF   =         0.00000000
  -V(xc)+E(xc)   XCENC  =        33.60516250
  PAW double counting   =       560.39887880     -562.13654828
  entropy T*S    EENTRO =        -0.00000000
  eigenvalues    EBANDS =      -109.59717121
  atomic energy  EATOM  =       457.26981990
  Solvation  Ediel_sol  =         0.00000000
  ---------------------------------------------------
  free energy    TOTEN  =       -14.17281384 eV

  energy without entropy =      -14.17281384  energy(sigma->0) =      -14.17281384


--------------------------------------------------------------------------------------------------------




--------------------------------------- Iteration      2(  10)  ---------------------------------------


    POTLOK:  cpu time      0.0697: real time      0.0704
    SETDIJ:  cpu time      0.0898: real time      0.0905
     EDDAV:  cpu time      0.2369: real time      0.2397
       DOS:  cpu time      0.0009: real time      0.0014
    CHARGE:  cpu time      0.0637: real time      0.0645
    MIXING:  cpu time      0.0037: real time      0.0037
    --------------------------------------------
      LOOP:  cpu time      0.4647: real time      0.4702

 eigenvalue-minimisations  :    96
 total energy-change (2. order) :-0.2450707E-05  (-0.5024740E-08)
 number of electron       8.0000001 magnetization 
 augmentation part        0.6821770 magnetization 

 Broyden mixing:
  rms(total) = 0.10647E-04    rms(broyden)= 0.99546E-05
  rms(prec ) = 0.15006E-04
  weight for this iteration     100.00

 eigenvalues of (default mixing * dielectric matrix)
  average eigenvalue GAMMA=   2.4811
  7.1884  3.8975  2.7244  2.5176  1.9397  1.0882  0.9764  0.9987  0.9987

 Free energy of the ion-electron system (eV)
  ---------------------------------------------------
  alpha Z        PSCENC =         0.02803141
  Ewald energy   TEWEN  =       121.34815094
  -Hartree energ DENC   =      -515.08950991
  -exchange      EXHF   =         0.00000000
  -V(xc)+E(xc)   XCENC  =        33.60518253
  PAW double counting   =       560.39944215     -562.13711044
  entropy T*S    EENTRO =        -0.00000000
  eigenvalues    EBANDS =      -109.59682288
  atomic energy  EATOM  =       457.26981990
  Solvation  Ediel_sol  =         0.00000000
  ---------------------------------------------------
  free energy    TOTEN  =       -14.17281629 eV

  energy without entropy =      -14.17281629  energy(sigma->0) =      -14.17281629


--------------------------------------------------------------------------------------------------------




--------------------------------------- Iteration      2(  11)  ---------------------------------------


    POTLOK:  cpu time      0.0652: real time      0.0657
    SETDIJ:  cpu time      0.0900: real time      0.0906
     EDDAV:  cpu time      0.2370: real time      0.2396
       DOS:  cpu time      0.0008: real time      0.0008
    CHARGE:  cpu time      0.0634: real time      0.0647
    MIXING:  cpu time      0.0036: real time      0.0037
    --------------------------------------------
      LOOP:  cpu time      0.4601: real time      0.4651

 eigenvalue-minimisations  :    96
 total energy-change (2. order) :-0.1313242E-05  (-0.2563114E-08)
 number of electron       8.0000001 magnetization 
 augmentation part        0.6821783 magnetization 

 Broyden mixing:
  rms(total) = 0.57437E-05    rms(broyden)= 0.43337E-05
  rms(prec ) = 0.68932E-05
  weight for this iteration     100.00
  WARNING: grid for Broyden might be to small

 eigenvalues of (default mixing * dielectric matrix)
  average eigenvalue GAMMA=   2.5247
  7.6890  4.2114  2.7992  2.3335  2.3335  1.8902  1.0133  1.0133  1.0196  0.9436

 Free energy of the ion-electron system (eV)
  ---------------------------------------------------
  alpha Z        PSCENC =         0.02803141
  Ewald energy   TEWEN  =       121.34815094
  -Hartree energ DENC   =      -515.08930818
  -exchange      EXHF   =         0.00000000
  -V(xc)+E(xc)   XCENC  =        33.60517106
  PAW double counting   =       560.39873003     -562.13638997
  entropy T*S    EENTRO =        -0.00000000
  eigenvalues    EBANDS =      -109.59702280
  atomic energy  EATOM  =       457.26981990
  Solvation  Ediel_sol  =         0.00000000
  ---------------------------------------------------
  free energy    TOTEN  =       -14.17281761 eV

  energy without entropy =      -14.17281761  energy(sigma->0) =      -14.17281761


--------------------------------------------------------------------------------------------------------




--------------------------------------- Iteration      2(  12)  ---------------------------------------


    POTLOK:  cpu time      0.0658: real time      0.0670
    SETDIJ:  cpu time      0.0898: real time      0.0905
     EDDAV:  cpu time      0.2364: real time      0.2395
       DOS:  cpu time      0.0007: real time      0.0007
    CHARGE:  cpu time      0.0632: real time      0.0645
    MIXING:  cpu time      0.0042: real time      0.0043
    --------------------------------------------
      LOOP:  cpu time      0.4603: real time      0.4666

 eigenvalue-minimisations  :    96
 total energy-change (2. order) :-0.7064946E-06  (-0.6167138E-09)
 number of electron       8.0000001 magnetization 
 augmentation part        0.6821781 magnetization 

 Broyden mixing:
  rms(total) = 0.43180E-05    rms(broyden)= 0.21135E-05
  rms(prec ) = 0.34288E-05
  weight for this iteration     100.00
  WARNING: grid for Broyden might be to small

 eigenvalues of (default mixing * dielectric matrix)
  average eigenvalue GAMMA=   2.6051
  8.5549  4.8588  3.2217  2.6398  2.2965  1.9588  1.1641  1.0047  1.0047  0.9394
  1.0131

 Free energy of the ion-electron system (eV)
  ---------------------------------------------------
  alpha Z        PSCENC =         0.02803141
  Ewald energy   TEWEN  =       121.34815094
  -Hartree energ DENC   =      -515.08933059
  -exchange      EXHF   =         0.00000000
  -V(xc)+E(xc)   XCENC  =        33.60517126
  PAW double counting   =       560.39880768     -562.13647170
  entropy T*S    EENTRO =        -0.00000000
  eigenvalues    EBANDS =      -109.59699721
  atomic energy  EATOM  =       457.26981990
  Solvation  Ediel_sol  =         0.00000000
  ---------------------------------------------------
  free energy    TOTEN  =       -14.17281831 eV

  energy without entropy =      -14.17281831  energy(sigma->0) =      -14.17281831


--------------------------------------------------------------------------------------------------------




--------------------------------------- Iteration      2(  13)  ---------------------------------------


    POTLOK:  cpu time      0.0657: real time      0.0667
    SETDIJ:  cpu time      0.0900: real time      0.0907
     EDDAV:  cpu time      0.2382: real time      0.2408
       DOS:  cpu time      0.0006: real time      0.0007
    CHARGE:  cpu time      0.0638: real time      0.0651
    MIXING:  cpu time      0.0040: real time      0.0040
    --------------------------------------------
      LOOP:  cpu time      0.4624: real time      0.4679

 eigenvalue-minimisations  :    96
 total energy-change (2. order) :-0.2363280E-06  (-0.1358949E-09)
 number of electron       8.0000001 magnetization 
 augmentation part        0.6821780 magnetization 

 Broyden mixing:
  rms(total) = 0.39621E-05    rms(broyden)= 0.12333E-05
  rms(prec ) = 0.20004E-05
  weight for this iteration     100.00
  WARNING: grid for Broyden might be to small

 eigenvalues of (default mixing * dielectric matrix)
  average eigenvalue GAMMA=   2.7556
  8.9546  5.6413  3.7569  2.8620  2.5984  2.2858  1.9611  1.0236  1.0236  1.0036
  1.0036  0.9526

 Free energy of the ion-electron system (eV)
  ---------------------------------------------------
  alpha Z        PSCENC =         0.02803141
  Ewald energy   TEWEN  =       121.34815094
  -Hartree energ DENC   =      -515.08933411
  -exchange      EXHF   =         0.00000000
  -V(xc)+E(xc)   XCENC  =        33.60517137
  PAW double counting   =       560.39895443     -562.13661888
  entropy T*S    EENTRO =        -0.00000000
  eigenvalues    EBANDS =      -109.59699362
  atomic energy  EATOM  =       457.26981990
  Solvation  Ediel_sol  =         0.00000000
  ---------------------------------------------------
  free energy    TOTEN  =       -14.17281855 eV

  energy without entropy =      -14.17281855  energy(sigma->0) =      -14.17281855


--------------------------------------------------------------------------------------------------------




--------------------------------------- Iteration      2(  14)  ---------------------------------------


    POTLOK:  cpu time      0.0669: real time      0.0675
    SETDIJ:  cpu time      0.0899: real time      0.0907
     EDDAV:  cpu time      0.2431: real time      0.2457
       DOS:  cpu time      0.0004: real time      0.0010
    CHARGE:  cpu time      0.0640: real time      0.0652
    MIXING:  cpu time      0.0037: real time      0.0037
    --------------------------------------------
      LOOP:  cpu time      0.4680: real time      0.4737

 eigenvalue-minimisations  :    64
 total energy-change (2. order) :-0.2350728E-06  (-0.1147811E-09)
 number of electron       8.0000001 magnetization 
 augmentation part        0.6821781 magnetization 

 Broyden mixing:
  rms(total) = 0.37982E-05    rms(broyden)= 0.49997E-06
  rms(prec ) = 0.73830E-06
  weight for this iteration     100.00
  WARNING: grid for Broyden might be to small

 eigenvalues of (default mixing * dielectric matrix)
  average eigenvalue GAMMA=   2.7055
  9.1768  6.0198  3.9686  2.9538  2.5555  2.2353  1.9724  1.3375  1.0183  1.0183
  0.9624  0.9624  0.9910

 Free energy of the ion-electron system (eV)
  ---------------------------------------------------
  alpha Z        PSCENC =         0.02803141
  Ewald energy   TEWEN  =       121.34815094
  -Hartree energ DENC   =      -515.08932169
  -exchange      EXHF   =         0.00000000
  -V(xc)+E(xc)   XCENC  =        33.60517086
  PAW double counting   =       560.39886064     -562.13652400
  entropy T*S    EENTRO =        -0.00000000
  eigenvalues    EBANDS =      -109.59700685
  atomic energy  EATOM  =       457.26981990
  Solvation  Ediel_sol  =         0.00000000
  ---------------------------------------------------
  free energy    TOTEN  =       -14.17281878 eV

  energy without entropy =      -14.17281878  energy(sigma->0) =      -14.17281878


--------------------------------------------------------------------------------------------------------




--------------------------------------- Iteration      2(  15)  ---------------------------------------


    POTLOK:  cpu time      0.0667: real time      0.0672
    SETDIJ:  cpu time      0.0912: real time      0.0919
     EDDAV:  cpu time      0.2373: real time      0.2399
       DOS:  cpu time      0.0009: real time      0.0014
    CHARGE:  cpu time      0.0635: real time      0.0642
    MIXING:  cpu time      0.0046: real time      0.0046
    --------------------------------------------
      LOOP:  cpu time      0.4642: real time      0.4693

 eigenvalue-minimisations  :    96
 total energy-change (2. order) :-0.3824823E-07  (-0.1733724E-10)
 number of electron       8.0000001 magnetization 
 augmentation part        0.6821781 magnetization 

 Broyden mixing:
  rms(total) = 0.37820E-05    rms(broyden)= 0.35699E-06
  rms(prec ) = 0.51772E-06
  weight for this iteration     100.00
  WARNING: grid for Broyden might be to small

 eigenvalues of (default mixing * dielectric matrix)
  average eigenvalue GAMMA=   2.8211
  9.5791  6.5141  4.5269  3.1906  2.9131  2.4473  2.2945  1.9783  0.9429  1.0193
  1.0193  1.0000  1.0000  1.0705

 Free energy of the ion-electron system (eV)
  ---------------------------------------------------
  alpha Z        PSCENC =         0.02803141
  Ewald energy   TEWEN  =       121.34815094
  -Hartree energ DENC   =      -515.08931481
  -exchange      EXHF   =         0.00000000
  -V(xc)+E(xc)   XCENC  =        33.60517045
  PAW double counting   =       560.39887215     -562.13653563
  entropy T*S    EENTRO =        -0.00000000
  eigenvalues    EBANDS =      -109.59701324
  atomic energy  EATOM  =       457.26981990
  Solvation  Ediel_sol  =         0.00000000
  ---------------------------------------------------
  free energy    TOTEN  =       -14.17281882 eV

  energy without entropy =      -14.17281882  energy(sigma->0) =      -14.17281882


--------------------------------------------------------------------------------------------------------




--------------------------------------- Iteration      2(  16)  ---------------------------------------


    POTLOK:  cpu time      0.0685: real time      0.0691
    SETDIJ:  cpu time      0.0899: real time      0.0905
     EDDAV:  cpu time      0.1747: real time      0.1766
       DOS:  cpu time      0.0009: real time      0.0009
    CHARGE:  cpu time      0.0648: real time      0.0663
    MIXING:  cpu time      0.0040: real time      0.0040
    --------------------------------------------
      LOOP:  cpu time      0.4028: real time      0.4075

 eigenvalue-minimisations  :    64
 total energy-change (2. order) :-0.4098206E-07  (-0.1858780E-10)
 number of electron       8.0000001 magnetization 
 augmentation part        0.6821781 magnetization 

 Broyden mixing:
  rms(total) = 0.37688E-05    rms(broyden)= 0.16757E-06
  rms(prec ) = 0.21824E-06
  weight for this iteration     100.00
  WARNING: grid for Broyden might be to small

 eigenvalues of (default mixing * dielectric matrix)
  average eigenvalue GAMMA=   2.7294
  9.6576  6.7210  4.5943  3.3166  2.7274  2.5018  2.0741  1.9614  1.4125  1.0327
  1.0327  0.9845  0.9845  0.9326  1.0071

 Free energy of the ion-electron system (eV)
  ---------------------------------------------------
  alpha Z        PSCENC =         0.02803141
  Ewald energy   TEWEN  =       121.34815094
  -Hartree energ DENC   =      -515.08932266
  -exchange      EXHF   =         0.00000000
  -V(xc)+E(xc)   XCENC  =        33.60517086
  PAW double counting   =       560.39889546     -562.13655918
  entropy T*S    EENTRO =        -0.00000000
  eigenvalues    EBANDS =      -109.59700559
  atomic energy  EATOM  =       457.26981990
  Solvation  Ediel_sol  =         0.00000000
  ---------------------------------------------------
  free energy    TOTEN  =       -14.17281886 eV

  energy without entropy =      -14.17281886  energy(sigma->0) =      -14.17281886


--------------------------------------------------------------------------------------------------------




--------------------------------------- Iteration      2(  17)  ---------------------------------------


    POTLOK:  cpu time      0.0676: real time      0.0688
    SETDIJ:  cpu time      0.0899: real time      0.0905
     EDDAV:  cpu time      0.3142: real time      0.3174
       DOS:  cpu time      0.0006: real time      0.0006
    --------------------------------------------
      LOOP:  cpu time      0.4722: real time      0.4773

 eigenvalue-minimisations  :   128
 total energy-change (2. order) :-0.3467221E-08  (-0.1430145E-10)
 number of electron       8.0000001 magnetization 
 augmentation part        0.6821781 magnetization 

 Free energy of the ion-electron system (eV)
  ---------------------------------------------------
  alpha Z        PSCENC =         0.02803141
  Ewald energy   TEWEN  =       121.34815094
  -Hartree energ DENC   =      -515.08932049
  -exchange      EXHF   =         0.00000000
  -V(xc)+E(xc)   XCENC  =        33.60517076
  PAW double counting   =       560.39888497     -562.13654856
  entropy T*S    EENTRO =        -0.00000000
  eigenvalues    EBANDS =      -109.59700779
  atomic energy  EATOM  =       457.26981990
  Solvation  Ediel_sol  =         0.00000000
  ---------------------------------------------------
  free energy    TOTEN  =       -14.17281887 eV

  energy without entropy =      -14.17281887  energy(sigma->0) =      -14.17281887


--------------------------------------------------------------------------------------------------------




 average (electrostatic) potential at core
  the test charge radii are     0.5201  0.7215
  (the norm of the test charge is              1.0000)
       1 -44.8007       2 -44.8395       3 -80.7584



 E-fermi :  -7.1188     XC(G=0):  -0.1047     alpha+bet : -0.0163

 val. band max:       -7.1733339126   @ k =   0.0000   0.0000   0.0000
 cond. band min:      -1.0770938300   @ k =   0.0000   0.0000   0.0000
 fundamental gap:      6.0962400826
 Fermi energy:        -7.1188202439

 k-point     1 :       0.0000    0.0000    0.0000
  band No.  band energies     occupation 
      1     -25.3362      2.00000
      2     -12.9710      2.00000
      3      -9.3179      2.00000
      4      -7.1733      2.00000
      5      -1.0771      0.00000
      6       0.0112      0.00000
      7       0.1971      0.00000
      8       0.2968      0.00000
      9       0.3114      0.00000
     10       0.3411      0.00000
     11       0.3484      0.00000
     12       0.4617      0.00000
     13       0.4974      0.00000
     14       0.6014      0.00000
     15       0.6225      0.00000
     16       0.7076      0.00000
     17       0.7079      0.00000
     18       0.7132      0.00000
     19       0.7170      0.00000
     20       0.7208      0.00000
     21       0.7298      0.00000
     22       0.7319      0.00000
     23       0.7372      0.00000
     24       0.9363      0.00000
     25       0.9375      0.00000
     26       1.0200      0.00000
     27       1.0345      0.00000
     28       1.0818      0.00000
     29       1.0850      0.00000
     30       1.0879      0.00000
     31       1.1043      0.00000
     32       1.2521      0.00000


--------------------------------------------------------------------------------------------------------


 soft charge-density along one line, spin component           1
         0         1         2         3         4         5         6         7         8         9
 total charge-density along one line

 pseudopotential strength for first ion, spin component:           1
 -2.379  -4.109  -0.023   0.000   0.003
 -4.109  -7.011  -0.042   0.000   0.006
 -0.023  -0.042  -0.283  -0.000  -0.006
  0.000   0.000  -0.000  -0.327  -0.000
  0.003   0.006  -0.006  -0.000  -0.325
 total augmentation occupancy for first ion, spin component:           1
  3.951  -0.863   0.696  -0.000  -0.117
 -0.863   0.235  -0.149   0.000   0.029
  0.696  -0.149   0.123  -0.000  -0.019
 -0.000   0.000  -0.000   0.038  -0.000
 -0.117   0.029  -0.019  -0.000   0.028


------------------------ aborting loop because EDIFF is reached ----------------------------------------


    CHARGE:  cpu time      0.0886: real time      0.0894
    FORLOC:  cpu time      0.0019: real time      0.0019
    FORNL :  cpu time      0.3366: real time      0.3409
    STRESS:  cpu time      0.9208: real time      0.9308
    FORCOR:  cpu time      0.0559: real time      0.0563
    FORHAR:  cpu time      0.0145: real time      0.0147
    MIXING:  cpu time      0.0028: real time      0.0028
    OFIELD:  cpu time      0.0000: real time      0.0000

 ---------------------------------------------------------------------------------------------

         DFTD3 V3.0 Rev 1        
 Edisp (eV)   -0.00129

 E6    (eV) :    -0.0012
 E8    (eV) :    -0.0001
 % E8        :  5.25
    FORVDW:  cpu time      0.0079: real time      0.0082

  FORCE on cell =-STRESS in cart. coord.  units (eV):
  Direction    XX          YY          ZZ          XY          YZ          ZX
  --------------------------------------------------------------------------------------
  Alpha Z     0.02803     0.02803     0.02803
  Ewald      57.83461    85.33011   -21.81656    20.58142    -0.00009     0.00019
  Hartree   174.90733   179.67086   160.51113     3.48718    -0.00002     0.00004
  E(xc)     -36.29756   -36.16338   -36.75713     0.09909    -0.00000     0.00000
  Local    -318.27042  -342.80086  -248.57181   -18.19923     0.00007    -0.00017
  n-local   -30.66910   -30.11846   -30.78259     0.37107    -0.00000     0.00000
  augment     6.42745     5.92841     8.07592    -0.37169     0.00000    -0.00000
  Kinetic   145.27161   137.34176   168.48291    -5.84245     0.00002    -0.00006
  Fock        0.00000     0.00000     0.00000     0.00000     0.00000     0.00000
  vdW         0.00244     0.00775    -0.00000     0.00390     0.00000     0.00000
  -------------------------------------------------------------------------------------
  Total      -0.76560    -0.77578    -0.83011     0.12930     0.00000     0.00000
  in kB      -0.15333    -0.15537    -0.16625     0.02589     0.00000     0.00000
  external pressure =       -0.16 kB  Pullay stress =        0.00 kB


 VOLUME and BASIS-vectors are now :
 -----------------------------------------------------------------------------
  energy-cutoff  :      400.00
  volume of cell :     8000.00
      direct lattice vectors                 reciprocal lattice vectors
    20.000000000  0.000000000  0.000000000     0.050000000  0.000000000  0.000000000
     0.000000000 20.000000000  0.000000000     0.000000000  0.050000000  0.000000000
     0.000000000  0.000000000 20.000000000     0.000000000  0.000000000  0.050000000

  length of vectors
    20.000000000 20.000000000 20.000000000     0.050000000  0.050000000  0.050000000


 FORCES acting on ions
    electron-ion (+dipol)            ewald-force                    non-local-force                 convergence-correction
 -----------------------------------------------------------------------------------------------
   -.124E+02 0.865E+02 -.148E-03   0.136E+02 -.945E+02 0.161E-03   -.122E+01 0.806E+01 -.127E-04   -.999E-07 0.124E-06 0.187E-09
   -.790E+02 -.382E+02 -.164E-03   0.865E+02 0.419E+02 0.180E-03   -.746E+01 -.354E+01 -.160E-04   -.668E-07 -.291E-07 0.192E-09
   0.564E+02 -.297E+02 0.196E-03   -.100E+03 0.526E+02 -.342E-03   0.437E+02 -.231E+02 0.146E-03   0.857E-07 -.546E-06 0.576E-08
 -----------------------------------------------------------------------------------------------
   -.351E+02 0.186E+02 -.116E-03   0.000E+00 0.000E+00 0.401E-17   0.350E+02 -.186E+02 0.118E-03   -.810E-07 -.451E-06 0.614E-08


 POSITION                                       TOTAL-FORCE (eV/Angst)
 -----------------------------------------------------------------------------------
      9.82755      9.62347     10.00000        -0.105513      0.115780      0.000000
     10.54234     10.97263     10.00000         0.000203      0.089629     -0.000001
      9.65011     10.58390     10.00000         0.105310     -0.205409      0.000001
 -----------------------------------------------------------------------------------
    total drift:                               -0.008984      0.004963      0.000002


--------------------------------------------------------------------------------------------------------



  FREE ENERGIE OF THE ION-ELECTRON SYSTEM (eV)
  ---------------------------------------------------
  free  energy   TOTEN  =       -14.17410625 eV

  energy  without entropy=      -14.17410625  energy(sigma->0) =      -14.17410625

 d Force =-0.1058246E-02[-0.211E-02,-0.623E-05]  d Energy =-0.1103798E-02 0.456E-04
 d Force = 0.2539665E+00[ 0.271E+00, 0.237E+00]  d Ewald  = 0.2540555E+00-0.890E-04


--------------------------------------------------------------------------------------------------------


    POTLOK:  cpu time      0.1575: real time      0.1587


--------------------------------------------------------------------------------------------------------


 Finite differences progress:
  Degree of freedom:   1/  9
  Displacement:        1/  2
  Total:               1/ 18
    WAVPRE:  cpu time      0.0096: real time      0.0113
    FEWALD:  cpu time      0.0003: real time      0.0003
    ORTHCH:  cpu time      0.0147: real time      0.0149
     LOOP+:  cpu time      9.5577: real time      9.6719


--------------------------------------- Ionic step        3  -------------------------------------------




--------------------------------------- Iteration      3(   1)  ---------------------------------------


    POTLOK:  cpu time      0.0627: real time      0.0640
    SETDIJ:  cpu time      0.0903: real time      0.0909
     EDDAV:  cpu time      0.1684: real time      0.1702
       DOS:  cpu time      0.0009: real time      0.0014
    CHARGE:  cpu time      0.0644: real time      0.0652
    MIXING:  cpu time      0.0025: real time      0.0026
    --------------------------------------------
      LOOP:  cpu time      0.3893: real time      0.3943

 eigenvalue-minimisations  :    64
 total energy-change (2. order) : 0.3703247E-03  (-0.5150184E-01)
 number of electron       8.0000001 magnetization 
 augmentation part        0.6870004 magnetization 

 Broyden mixing:
  rms(total) = 0.22057E-01    rms(broyden)= 0.21968E-01
  rms(prec ) = 0.22832E-01
  weight for this iteration     100.00

 Free energy of the ion-electron system (eV)
  ---------------------------------------------------
  alpha Z        PSCENC =         0.02803141
  Ewald energy   TEWEN  =       121.82124889
  -Hartree energ DENC   =      -515.31615005
  -exchange      EXHF   =         0.00000000
  -V(xc)+E(xc)   XCENC  =        33.61534678
  PAW double counting   =       560.39888459     -562.13654828
  entropy T*S    EENTRO =        -0.00000000
  eigenvalues    EBANDS =      -109.85308178
  atomic energy  EATOM  =       457.26981990
  Solvation  Ediel_sol  =         0.00000000
  ---------------------------------------------------
  free energy    TOTEN  =       -14.17244854 eV

  energy without entropy =      -14.17244854  energy(sigma->0) =      -14.17244854


--------------------------------------------------------------------------------------------------------




--------------------------------------- Iteration      3(   2)  ---------------------------------------


    POTLOK:  cpu time      0.0656: real time      0.0662
    SETDIJ:  cpu time      0.0901: real time      0.0908
     EDDAV:  cpu time      0.2370: real time      0.2395
       DOS:  cpu time      0.0008: real time      0.0008
    CHARGE:  cpu time      0.0646: real time      0.0659
    MIXING:  cpu time      0.0034: real time      0.0034
    --------------------------------------------
      LOOP:  cpu time      0.4615: real time      0.4666

 eigenvalue-minimisations  :    96
 total energy-change (2. order) : 0.4170083E-05  (-0.3387853E-03)
 number of electron       8.0000001 magnetization 
 augmentation part        0.6852070 magnetization 

 Broyden mixing:
  rms(total) = 0.12670E-01    rms(broyden)= 0.12658E-01
  rms(prec ) = 0.13091E-01
  weight for this iteration     100.00

 eigenvalues of (default mixing * dielectric matrix)
  average eigenvalue GAMMA=   1.6612
  1.6612

 Free energy of the ion-electron system (eV)
  ---------------------------------------------------
  alpha Z        PSCENC =         0.02803141
  Ewald energy   TEWEN  =       121.82124889
  -Hartree energ DENC   =      -515.54496987
  -exchange      EXHF   =         0.00000000
  -V(xc)+E(xc)   XCENC  =        33.62779425
  PAW double counting   =       561.70626978     -563.45186919
  entropy T*S    EENTRO =        -0.00000000
  eigenvalues    EBANDS =      -109.62876954
  atomic energy  EATOM  =       457.26981990
  Solvation  Ediel_sol  =         0.00000000
  ---------------------------------------------------
  free energy    TOTEN  =       -14.17244437 eV

  energy without entropy =      -14.17244437  energy(sigma->0) =      -14.17244437


--------------------------------------------------------------------------------------------------------




--------------------------------------- Iteration      3(   3)  ---------------------------------------


    POTLOK:  cpu time      0.0654: real time      0.0659
    SETDIJ:  cpu time      0.0898: real time      0.0907
     EDDAV:  cpu time      0.2364: real time      0.2388
       DOS:  cpu time      0.0009: real time      0.0009
    CHARGE:  cpu time      0.0641: real time      0.0655
    MIXING:  cpu time      0.0021: real time      0.0021
    --------------------------------------------
      LOOP:  cpu time      0.4587: real time      0.4640

 eigenvalue-minimisations  :    96
 total energy-change (2. order) :-0.1538382E-03  (-0.1043715E-04)
 number of electron       8.0000001 magnetization 
 augmentation part        0.6851645 magnetization 

 Broyden mixing:
  rms(total) = 0.47674E-02    rms(broyden)= 0.47664E-02
  rms(prec ) = 0.50001E-02
  weight for this iteration     100.00

 eigenvalues of (default mixing * dielectric matrix)
  average eigenvalue GAMMA=   1.7814
  1.0170  2.5457

 Free energy of the ion-electron system (eV)
  ---------------------------------------------------
  alpha Z        PSCENC =         0.02803141
  Ewald energy   TEWEN  =       121.82124889
  -Hartree energ DENC   =      -515.54297738
  -exchange      EXHF   =         0.00000000
  -V(xc)+E(xc)   XCENC  =        33.62770618
  PAW double counting   =       562.42450908     -564.17285591
  entropy T*S    EENTRO =        -0.00000000
  eigenvalues    EBANDS =      -109.62808037
  atomic energy  EATOM  =       457.26981990
  Solvation  Ediel_sol  =         0.00000000
  ---------------------------------------------------
  free energy    TOTEN  =       -14.17259821 eV

  energy without entropy =      -14.17259821  energy(sigma->0) =      -14.17259821


--------------------------------------------------------------------------------------------------------




--------------------------------------- Iteration      3(   4)  ---------------------------------------


    POTLOK:  cpu time      0.0652: real time      0.0657
    SETDIJ:  cpu time      0.0901: real time      0.0909
     EDDAV:  cpu time      0.3167: real time      0.3200
       DOS:  cpu time      0.0008: real time      0.0009
    CHARGE:  cpu time      0.0637: real time      0.0651
    MIXING:  cpu time      0.0031: real time      0.0031
    --------------------------------------------
      LOOP:  cpu time      0.5397: real time      0.5456

 eigenvalue-minimisations  :   128
 total energy-change (2. order) :-0.5301220E-04  (-0.3683007E-05)
 number of electron       8.0000001 magnetization 
 augmentation part        0.6852309 magnetization 

 Broyden mixing:
  rms(total) = 0.64785E-03    rms(broyden)= 0.64666E-03
  rms(prec ) = 0.87141E-03
  weight for this iteration     100.00

 eigenvalues of (default mixing * dielectric matrix)
  average eigenvalue GAMMA=   1.8637
  1.0449  2.6497  1.8966

 Free energy of the ion-electron system (eV)
  ---------------------------------------------------
  alpha Z        PSCENC =         0.02803141
  Ewald energy   TEWEN  =       121.82124889
  -Hartree energ DENC   =      -515.53417901
  -exchange      EXHF   =         0.00000000
  -V(xc)+E(xc)   XCENC  =        33.62728902
  PAW double counting   =       562.83283678     -564.58272133
  entropy T*S    EENTRO =        -0.00000000
  eigenvalues    EBANDS =      -109.63497688
  atomic energy  EATOM  =       457.26981990
  Solvation  Ediel_sol  =         0.00000000
  ---------------------------------------------------
  free energy    TOTEN  =       -14.17265122 eV

  energy without entropy =      -14.17265122  energy(sigma->0) =      -14.17265122


--------------------------------------------------------------------------------------------------------




--------------------------------------- Iteration      3(   5)  ---------------------------------------


    POTLOK:  cpu time      0.0665: real time      0.0672
    SETDIJ:  cpu time      0.0903: real time      0.0912
     EDDAV:  cpu time      0.2400: real time      0.2426
       DOS:  cpu time      0.0007: real time      0.0007
    CHARGE:  cpu time      0.0636: real time      0.0650
    MIXING:  cpu time      0.0038: real time      0.0038
    --------------------------------------------
      LOOP:  cpu time      0.4650: real time      0.4704

 eigenvalue-minimisations  :    96
 total energy-change (2. order) :-0.6425636E-04  (-0.9462745E-06)
 number of electron       8.0000001 magnetization 
 augmentation part        0.6852069 magnetization 

 Broyden mixing:
  rms(total) = 0.27293E-03    rms(broyden)= 0.27249E-03
  rms(prec ) = 0.43870E-03
  weight for this iteration     100.00

 eigenvalues of (default mixing * dielectric matrix)
  average eigenvalue GAMMA=   1.7895
  2.8280  2.4218  0.9305  0.9777

 Free energy of the ion-electron system (eV)
  ---------------------------------------------------
  alpha Z        PSCENC =         0.02803141
  Ewald energy   TEWEN  =       121.82124889
  -Hartree energ DENC   =      -515.54182634
  -exchange      EXHF   =         0.00000000
  -V(xc)+E(xc)   XCENC  =        33.62763674
  PAW double counting   =       562.84882215     -564.59895074
  entropy T*S    EENTRO =        -0.00000000
  eigenvalues    EBANDS =      -109.62749748
  atomic energy  EATOM  =       457.26981990
  Solvation  Ediel_sol  =         0.00000000
  ---------------------------------------------------
  free energy    TOTEN  =       -14.17271547 eV

  energy without entropy =      -14.17271547  energy(sigma->0) =      -14.17271547


--------------------------------------------------------------------------------------------------------




--------------------------------------- Iteration      3(   6)  ---------------------------------------


    POTLOK:  cpu time      0.0741: real time      0.0764
    SETDIJ:  cpu time      0.0907: real time      0.0914
     EDDAV:  cpu time      0.1772: real time      0.1792
       DOS:  cpu time      0.0008: real time      0.0008
    CHARGE:  cpu time      0.0638: real time      0.0651
    MIXING:  cpu time      0.0035: real time      0.0035
    --------------------------------------------
      LOOP:  cpu time      0.4102: real time      0.4164

 eigenvalue-minimisations  :    64
 total energy-change (2. order) :-0.4373139E-04  (-0.4071763E-06)
 number of electron       8.0000001 magnetization 
 augmentation part        0.6852321 magnetization 

 Broyden mixing:
  rms(total) = 0.15037E-03    rms(broyden)= 0.15026E-03
  rms(prec ) = 0.27177E-03
  weight for this iteration     100.00

 eigenvalues of (default mixing * dielectric matrix)
  average eigenvalue GAMMA=   1.9241
  3.1156  2.5055  2.0923  0.9035  1.0035

 Free energy of the ion-electron system (eV)
  ---------------------------------------------------
  alpha Z        PSCENC =         0.02803141
  Ewald energy   TEWEN  =       121.82124889
  -Hartree energ DENC   =      -515.53876777
  -exchange      EXHF   =         0.00000000
  -V(xc)+E(xc)   XCENC  =        33.62742423
  PAW double counting   =       562.83550165     -564.58563786
  entropy T*S    EENTRO =        -0.00000000
  eigenvalues    EBANDS =      -109.63037966
  atomic energy  EATOM  =       457.26981990
  Solvation  Ediel_sol  =         0.00000000
  ---------------------------------------------------
  free energy    TOTEN  =       -14.17275921 eV

  energy without entropy =      -14.17275921  energy(sigma->0) =      -14.17275921


--------------------------------------------------------------------------------------------------------




--------------------------------------- Iteration      3(   7)  ---------------------------------------


    POTLOK:  cpu time      0.0651: real time      0.0659
    SETDIJ:  cpu time      0.0907: real time      0.0913
     EDDAV:  cpu time      0.1698: real time      0.1716
       DOS:  cpu time      0.0007: real time      0.0007
    CHARGE:  cpu time      0.0638: real time      0.0652
    MIXING:  cpu time      0.0031: real time      0.0032
    --------------------------------------------
      LOOP:  cpu time      0.3933: real time      0.3979

 eigenvalue-minimisations  :    64
 total energy-change (2. order) :-0.5083122E-04  (-0.4794353E-06)
 number of electron       8.0000001 magnetization 
 augmentation part        0.6852409 magnetization 

 Broyden mixing:
  rms(total) = 0.10055E-03    rms(broyden)= 0.10046E-03
  rms(prec ) = 0.16803E-03
  weight for this iteration     100.00

 eigenvalues of (default mixing * dielectric matrix)
  average eigenvalue GAMMA=   1.9706
  3.9463  2.6166  2.1093  1.0205  1.0205  1.1101

 Free energy of the ion-electron system (eV)
  ---------------------------------------------------
  alpha Z        PSCENC =         0.02803141
  Ewald energy   TEWEN  =       121.82124889
  -Hartree energ DENC   =      -515.53689014
  -exchange      EXHF   =         0.00000000
  -V(xc)+E(xc)   XCENC  =        33.62729144
  PAW double counting   =       562.83397803     -564.58413887
  entropy T*S    EENTRO =        -0.00000000
  eigenvalues    EBANDS =      -109.63215069
  atomic energy  EATOM  =       457.26981990
  Solvation  Ediel_sol  =         0.00000000
  ---------------------------------------------------
  free energy    TOTEN  =       -14.17281004 eV

  energy without entropy =      -14.17281004  energy(sigma->0) =      -14.17281004


--------------------------------------------------------------------------------------------------------




--------------------------------------- Iteration      3(   8)  ---------------------------------------


    POTLOK:  cpu time      0.0647: real time      0.0659
    SETDIJ:  cpu time      0.0898: real time      0.0904
     EDDAV:  cpu time      0.2375: real time      0.2401
       DOS:  cpu time      0.0008: real time      0.0009
    CHARGE:  cpu time      0.0635: real time      0.0647
    MIXING:  cpu time      0.0035: real time      0.0035
    --------------------------------------------
      LOOP:  cpu time      0.4599: real time      0.4655

 eigenvalue-minimisations  :    96
 total energy-change (2. order) :-0.2512187E-04  (-0.1874093E-06)
 number of electron       8.0000001 magnetization 
 augmentation part        0.6852297 magnetization 

 Broyden mixing:
  rms(total) = 0.50971E-04    rms(broyden)= 0.50778E-04
  rms(prec ) = 0.98368E-04
  weight for this iteration     100.00

 eigenvalues of (default mixing * dielectric matrix)
  average eigenvalue GAMMA=   2.2812
  5.4953  2.9121  2.5909  1.9108  1.0174  1.0174  1.0243

 Free energy of the ion-electron system (eV)
  ---------------------------------------------------
  alpha Z        PSCENC =         0.02803141
  Ewald energy   TEWEN  =       121.82124889
  -Hartree energ DENC   =      -515.53927672
  -exchange      EXHF   =         0.00000000
  -V(xc)+E(xc)   XCENC  =        33.62740165
  PAW double counting   =       562.83690193     -564.58708103
  entropy T*S    EENTRO =        -0.00000000
  eigenvalues    EBANDS =      -109.62988119
  atomic energy  EATOM  =       457.26981990
  Solvation  Ediel_sol  =         0.00000000
  ---------------------------------------------------
  free energy    TOTEN  =       -14.17283516 eV

  energy without entropy =      -14.17283516  energy(sigma->0) =      -14.17283516


--------------------------------------------------------------------------------------------------------




--------------------------------------- Iteration      3(   9)  ---------------------------------------


    POTLOK:  cpu time      0.0793: real time      0.0806
    SETDIJ:  cpu time      0.0896: real time      0.0904
     EDDAV:  cpu time      0.1698: real time      0.1717
       DOS:  cpu time      0.0007: real time      0.0007
    CHARGE:  cpu time      0.0644: real time      0.0656
    MIXING:  cpu time      0.0037: real time      0.0037
    --------------------------------------------
      LOOP:  cpu time      0.4074: real time      0.4127

 eigenvalue-minimisations  :    64
 total energy-change (2. order) :-0.2162125E-04  (-0.1547932E-06)
 number of electron       8.0000001 magnetization 
 augmentation part        0.6852332 magnetization 

 Broyden mixing:
  rms(total) = 0.26796E-04    rms(broyden)= 0.26509E-04
  rms(prec ) = 0.45013E-04
  weight for this iteration     100.00

 eigenvalues of (default mixing * dielectric matrix)
  average eigenvalue GAMMA=   2.2382
  5.9287  3.0904  2.5373  1.9805  1.3707  1.0043  1.0043  0.9898

 Free energy of the ion-electron system (eV)
  ---------------------------------------------------
  alpha Z        PSCENC =         0.02803141
  Ewald energy   TEWEN  =       121.82124889
  -Hartree energ DENC   =      -515.53876482
  -exchange      EXHF   =         0.00000000
  -V(xc)+E(xc)   XCENC  =        33.62735577
  PAW double counting   =       562.83718121     -564.58733023
  entropy T*S    EENTRO =        -0.00000000
  eigenvalues    EBANDS =      -109.63039891
  atomic energy  EATOM  =       457.26981990
  Solvation  Ediel_sol  =         0.00000000
  ---------------------------------------------------
  free energy    TOTEN  =       -14.17285678 eV

  energy without entropy =      -14.17285678  energy(sigma->0) =      -14.17285678


--------------------------------------------------------------------------------------------------------




--------------------------------------- Iteration      3(  10)  ---------------------------------------


    POTLOK:  cpu time      0.0659: real time      0.0664
    SETDIJ:  cpu time      0.0902: real time      0.0909
     EDDAV:  cpu time      0.2367: real time      0.2393
       DOS:  cpu time      0.0007: real time      0.0007
    CHARGE:  cpu time      0.0636: real time      0.0648
    MIXING:  cpu time      0.0034: real time      0.0034
    --------------------------------------------
      LOOP:  cpu time      0.4605: real time      0.4655

 eigenvalue-minimisations  :    96
 total energy-change (2. order) :-0.6027562E-05  (-0.9398397E-08)
 number of electron       8.0000001 magnetization 
 augmentation part        0.6852349 magnetization 

 Broyden mixing:
  rms(total) = 0.16051E-04    rms(broyden)= 0.15612E-04
  rms(prec ) = 0.28058E-04
  weight for this iteration     100.00

 eigenvalues of (default mixing * dielectric matrix)
  average eigenvalue GAMMA=   2.4865
  7.2173  3.8618  2.7387  2.5304  1.9490  1.0323  1.0323  1.0478  0.9689

 Free energy of the ion-electron system (eV)
  ---------------------------------------------------
  alpha Z        PSCENC =         0.02803141
  Ewald energy   TEWEN  =       121.82124889
  -Hartree energ DENC   =      -515.53846311
  -exchange      EXHF   =         0.00000000
  -V(xc)+E(xc)   XCENC  =        33.62733541
  PAW double counting   =       562.83688114     -564.58703648
  entropy T*S    EENTRO =        -0.00000000
  eigenvalues    EBANDS =      -109.63067996
  atomic energy  EATOM  =       457.26981990
  Solvation  Ediel_sol  =         0.00000000
  ---------------------------------------------------
  free energy    TOTEN  =       -14.17286281 eV

  energy without entropy =      -14.17286281  energy(sigma->0) =      -14.17286281


--------------------------------------------------------------------------------------------------------




--------------------------------------- Iteration      3(  11)  ---------------------------------------


    POTLOK:  cpu time      0.0675: real time      0.0687
    SETDIJ:  cpu time      0.0904: real time      0.0910
     EDDAV:  cpu time      0.2350: real time      0.2377
       DOS:  cpu time      0.0008: real time      0.0008
    CHARGE:  cpu time      0.0632: real time      0.0645
    MIXING:  cpu time      0.0038: real time      0.0038
    --------------------------------------------
      LOOP:  cpu time      0.4606: real time      0.4665

 eigenvalue-minimisations  :    96
 total energy-change (2. order) :-0.4583763E-05  (-0.1204284E-07)
 number of electron       8.0000001 magnetization 
 augmentation part        0.6852327 magnetization 

 Broyden mixing:
  rms(total) = 0.10294E-04    rms(broyden)= 0.95973E-05
  rms(prec ) = 0.14324E-04
  weight for this iteration     100.00

 eigenvalues of (default mixing * dielectric matrix)
  average eigenvalue GAMMA=   2.4696
  7.6112  4.2350  2.7672  2.4369  2.0412  1.5314  1.0449  1.0449  0.9787  1.0047

 Free energy of the ion-electron system (eV)
  ---------------------------------------------------
  alpha Z        PSCENC =         0.02803141
  Ewald energy   TEWEN  =       121.82124889
  -Hartree energ DENC   =      -515.53864785
  -exchange      EXHF   =         0.00000000
  -V(xc)+E(xc)   XCENC  =        33.62734379
  PAW double counting   =       562.83799066     -564.58816247
  entropy T*S    EENTRO =        -0.00000000
  eigenvalues    EBANDS =      -109.63049172
  atomic energy  EATOM  =       457.26981990
  Solvation  Ediel_sol  =         0.00000000
  ---------------------------------------------------
  free energy    TOTEN  =       -14.17286739 eV

  energy without entropy =      -14.17286739  energy(sigma->0) =      -14.17286739


--------------------------------------------------------------------------------------------------------




--------------------------------------- Iteration      3(  12)  ---------------------------------------


    POTLOK:  cpu time      0.0660: real time      0.0666
    SETDIJ:  cpu time      0.0900: real time      0.0906
     EDDAV:  cpu time      0.2361: real time      0.2388
       DOS:  cpu time      0.0009: real time      0.0009
    CHARGE:  cpu time      0.0642: real time      0.0654
    MIXING:  cpu time      0.0036: real time      0.0036
    --------------------------------------------
      LOOP:  cpu time      0.4608: real time      0.4659

 eigenvalue-minimisations  :    96
 total energy-change (2. order) :-0.1600532E-05  (-0.1829672E-08)
 number of electron       8.0000001 magnetization 
 augmentation part        0.6852345 magnetization 

 Broyden mixing:
  rms(total) = 0.73639E-05    rms(broyden)= 0.63587E-05
  rms(prec ) = 0.92467E-05
  weight for this iteration     100.00
  WARNING: grid for Broyden might be to small

 eigenvalues of (default mixing * dielectric matrix)
  average eigenvalue GAMMA=   2.6058
  8.5410  4.8238  3.2610  2.5988  2.2945  1.9924  1.1426  1.0327  1.0327  0.9472
  0.9972

 Free energy of the ion-electron system (eV)
  ---------------------------------------------------
  alpha Z        PSCENC =         0.02803141
  Ewald energy   TEWEN  =       121.82124889
  -Hartree energ DENC   =      -515.53839055
  -exchange      EXHF   =         0.00000000
  -V(xc)+E(xc)   XCENC  =        33.62732912
  PAW double counting   =       562.83731016     -564.58747273
  entropy T*S    EENTRO =        -0.00000000
  eigenvalues    EBANDS =      -109.63074520
  atomic energy  EATOM  =       457.26981990
  Solvation  Ediel_sol  =         0.00000000
  ---------------------------------------------------
  free energy    TOTEN  =       -14.17286899 eV

  energy without entropy =      -14.17286899  energy(sigma->0) =      -14.17286899


--------------------------------------------------------------------------------------------------------




--------------------------------------- Iteration      3(  13)  ---------------------------------------


    POTLOK:  cpu time      0.0651: real time      0.0656
    SETDIJ:  cpu time      0.0901: real time      0.0907
     EDDAV:  cpu time      0.2348: real time      0.2375
       DOS:  cpu time      0.0008: real time      0.0008
    CHARGE:  cpu time      0.0640: real time      0.0653
    MIXING:  cpu time      0.0028: real time      0.0028
    --------------------------------------------
      LOOP:  cpu time      0.4576: real time      0.4629

 eigenvalue-minimisations  :    96
 total energy-change (2. order) :-0.1044344E-05  (-0.1099753E-08)
 number of electron       8.0000001 magnetization 
 augmentation part        0.6852337 magnetization 

 Broyden mixing:
  rms(total) = 0.43518E-05    rms(broyden)= 0.22763E-05
  rms(prec ) = 0.38143E-05
  weight for this iteration     100.00
  WARNING: grid for Broyden might be to small

 eigenvalues of (default mixing * dielectric matrix)
  average eigenvalue GAMMA=   2.6851
  8.8711  5.5128  3.6512  2.8383  2.5212  1.8791  1.8791  1.0326  1.0326  1.0683
  0.9370  0.9984

 Free energy of the ion-electron system (eV)
  ---------------------------------------------------
  alpha Z        PSCENC =         0.02803141
  Ewald energy   TEWEN  =       121.82124889
  -Hartree energ DENC   =      -515.53855434
  -exchange      EXHF   =         0.00000000
  -V(xc)+E(xc)   XCENC  =        33.62733725
  PAW double counting   =       562.83732801     -564.58749060
  entropy T*S    EENTRO =        -0.00000000
  eigenvalues    EBANDS =      -109.63059056
  atomic energy  EATOM  =       457.26981990
  Solvation  Ediel_sol  =         0.00000000
  ---------------------------------------------------
  free energy    TOTEN  =       -14.17287004 eV

  energy without entropy =      -14.17287004  energy(sigma->0) =      -14.17287004


--------------------------------------------------------------------------------------------------------




--------------------------------------- Iteration      3(  14)  ---------------------------------------


    POTLOK:  cpu time      0.0661: real time      0.0667
    SETDIJ:  cpu time      0.0898: real time      0.0904
     EDDAV:  cpu time      0.2363: real time      0.2388
       DOS:  cpu time      0.0008: real time      0.0008
    CHARGE:  cpu time      0.0642: real time      0.0655
    MIXING:  cpu time      0.0029: real time      0.0029
    --------------------------------------------
      LOOP:  cpu time      0.4601: real time      0.4652

 eigenvalue-minimisations  :    96
 total energy-change (2. order) :-0.4826653E-06  (-0.2812079E-09)
 number of electron       8.0000001 magnetization 
 augmentation part        0.6852338 magnetization 

 Broyden mixing:
  rms(total) = 0.38970E-05    rms(broyden)= 0.12013E-05
  rms(prec ) = 0.18307E-05
  weight for this iteration     100.00
  WARNING: grid for Broyden might be to small

 eigenvalues of (default mixing * dielectric matrix)
  average eigenvalue GAMMA=   2.7364
  9.2258  6.1050  4.0477  3.0212  2.5894  2.4160  1.9599  1.2168  1.0299  1.0299
  1.0100  0.9811  0.9403

 Free energy of the ion-electron system (eV)
  ---------------------------------------------------
  alpha Z        PSCENC =         0.02803141
  Ewald energy   TEWEN  =       121.82124889
  -Hartree energ DENC   =      -515.53853903
  -exchange      EXHF   =         0.00000000
  -V(xc)+E(xc)   XCENC  =        33.62733592
  PAW double counting   =       562.83741698     -564.58757997
  entropy T*S    EENTRO =        -0.00000000
  eigenvalues    EBANDS =      -109.63060461
  atomic energy  EATOM  =       457.26981990
  Solvation  Ediel_sol  =         0.00000000
  ---------------------------------------------------
  free energy    TOTEN  =       -14.17287052 eV

  energy without entropy =      -14.17287052  energy(sigma->0) =      -14.17287052


--------------------------------------------------------------------------------------------------------




--------------------------------------- Iteration      3(  15)  ---------------------------------------


    POTLOK:  cpu time      0.0669: real time      0.0675
    SETDIJ:  cpu time      0.0911: real time      0.0917
     EDDAV:  cpu time      0.3197: real time      0.3231
       DOS:  cpu time      0.0009: real time      0.0009
    CHARGE:  cpu time      0.0637: real time      0.0649
    MIXING:  cpu time      0.0038: real time      0.0039
    --------------------------------------------
      LOOP:  cpu time      0.5460: real time      0.5519

 eigenvalue-minimisations  :   128
 total energy-change (2. order) :-0.1908660E-06  (-0.5557688E-10)
 number of electron       8.0000001 magnetization 
 augmentation part        0.6852338 magnetization 

 Broyden mixing:
  rms(total) = 0.37633E-05    rms(broyden)= 0.64730E-06
  rms(prec ) = 0.91242E-06
  weight for this iteration     100.00
  WARNING: grid for Broyden might be to small

 eigenvalues of (default mixing * dielectric matrix)
  average eigenvalue GAMMA=   2.8063
  9.5875  6.5194  4.4913  3.2510  2.7249  2.3328  2.3328  1.9655  1.0296  1.0296
  1.1044  0.9861  0.9861  0.9471

 Free energy of the ion-electron system (eV)
  ---------------------------------------------------
  alpha Z        PSCENC =         0.02803141
  Ewald energy   TEWEN  =       121.82124889
  -Hartree energ DENC   =      -515.53853826
  -exchange      EXHF   =         0.00000000
  -V(xc)+E(xc)   XCENC  =        33.62733572
  PAW double counting   =       562.83750898     -564.58767334
  entropy T*S    EENTRO =        -0.00000000
  eigenvalues    EBANDS =      -109.63060402
  atomic energy  EATOM  =       457.26981990
  Solvation  Ediel_sol  =         0.00000000
  ---------------------------------------------------
  free energy    TOTEN  =       -14.17287071 eV

  energy without entropy =      -14.17287071  energy(sigma->0) =      -14.17287071


--------------------------------------------------------------------------------------------------------




--------------------------------------- Iteration      3(  16)  ---------------------------------------


    POTLOK:  cpu time      0.0780: real time      0.0786
    SETDIJ:  cpu time      0.0898: real time      0.0904
     EDDAV:  cpu time      0.1684: real time      0.1703
       DOS:  cpu time      0.0008: real time      0.0008
    CHARGE:  cpu time      0.0634: real time      0.0647
    MIXING:  cpu time      0.0033: real time      0.0033
    --------------------------------------------
      LOOP:  cpu time      0.4037: real time      0.4081

 eigenvalue-minimisations  :    64
 total energy-change (2. order) :-0.8902600E-07  (-0.2206235E-10)
 number of electron       8.0000001 magnetization 
 augmentation part        0.6852338 magnetization 

 Broyden mixing:
  rms(total) = 0.37137E-05    rms(broyden)= 0.21921E-06
  rms(prec ) = 0.35128E-06
  weight for this iteration     100.00
  WARNING: grid for Broyden might be to small

 eigenvalues of (default mixing * dielectric matrix)
  average eigenvalue GAMMA=   2.8133
  9.7274  6.9095  4.7784  3.5536  2.8788  2.6020  2.2419  1.9778  1.4725  1.0295
  1.0295  1.0693  0.9931  0.9931  0.9427

 Free energy of the ion-electron system (eV)
  ---------------------------------------------------
  alpha Z        PSCENC =         0.02803141
  Ewald energy   TEWEN  =       121.82124889
  -Hartree energ DENC   =      -515.53854114
  -exchange      EXHF   =         0.00000000
  -V(xc)+E(xc)   XCENC  =        33.62733597
  PAW double counting   =       562.83744522     -564.58760899
  entropy T*S    EENTRO =        -0.00000000
  eigenvalues    EBANDS =      -109.63060206
  atomic energy  EATOM  =       457.26981990
  Solvation  Ediel_sol  =         0.00000000
  ---------------------------------------------------
  free energy    TOTEN  =       -14.17287080 eV

  energy without entropy =      -14.17287080  energy(sigma->0) =      -14.17287080


--------------------------------------------------------------------------------------------------------




--------------------------------------- Iteration      3(  17)  ---------------------------------------


    POTLOK:  cpu time      0.0670: real time      0.0675
    SETDIJ:  cpu time      0.0895: real time      0.0903
     EDDAV:  cpu time      0.3174: real time      0.3206
       DOS:  cpu time      0.0012: real time      0.0017
    CHARGE:  cpu time      0.0641: real time      0.0648
    MIXING:  cpu time      0.0084: real time      0.0085
    --------------------------------------------
      LOOP:  cpu time      0.5475: real time      0.5534

 eigenvalue-minimisations  :   128
 total energy-change (2. order) :-0.2327647E-07  (-0.1313083E-10)
 number of electron       8.0000001 magnetization 
 augmentation part        0.6852338 magnetization 

 Broyden mixing:
  rms(total) = 0.37105E-05    rms(broyden)= 0.15612E-06
  rms(prec ) = 0.21672E-06
  weight for this iteration     100.00
  WARNING: grid for Broyden might be to small

 eigenvalues of (default mixing * dielectric matrix)
  average eigenvalue GAMMA=   2.8266
  9.7982  7.1611  4.9996  3.7822  2.9542  2.5935  2.5935  2.2207  1.9716  1.0296
  1.0296  1.1066  0.9424  0.9942  0.9942  1.0539

 Free energy of the ion-electron system (eV)
  ---------------------------------------------------
  alpha Z        PSCENC =         0.02803141
  Ewald energy   TEWEN  =       121.82124889
  -Hartree energ DENC   =      -515.53853969
  -exchange      EXHF   =         0.00000000
  -V(xc)+E(xc)   XCENC  =        33.62733589
  PAW double counting   =       562.83743136     -564.58759515
  entropy T*S    EENTRO =        -0.00000000
  eigenvalues    EBANDS =      -109.63060343
  atomic energy  EATOM  =       457.26981990
  Solvation  Ediel_sol  =         0.00000000
  ---------------------------------------------------
  free energy    TOTEN  =       -14.17287082 eV

  energy without entropy =      -14.17287082  energy(sigma->0) =      -14.17287082


--------------------------------------------------------------------------------------------------------




--------------------------------------- Iteration      3(  18)  ---------------------------------------


    POTLOK:  cpu time      0.0791: real time      0.0829
    SETDIJ:  cpu time      0.1777: real time      0.1789
     EDDAV:  cpu time      0.2079: real time      0.2107
       DOS:  cpu time      0.0006: real time      0.0006
    --------------------------------------------
      LOOP:  cpu time      0.4653: real time      0.4731

 eigenvalue-minimisations  :    64
 total energy-change (2. order) :-0.8187726E-08  (-0.1176659E-10)
 number of electron       8.0000001 magnetization 
 augmentation part        0.6852338 magnetization 

 Free energy of the ion-electron system (eV)
  ---------------------------------------------------
  alpha Z        PSCENC =         0.02803141
  Ewald energy   TEWEN  =       121.82124889
  -Hartree energ DENC   =      -515.53853754
  -exchange      EXHF   =         0.00000000
  -V(xc)+E(xc)   XCENC  =        33.62733576
  PAW double counting   =       562.83744869     -564.58761256
  entropy T*S    EENTRO =        -0.00000000
  eigenvalues    EBANDS =      -109.63060539
  atomic energy  EATOM  =       457.26981990
  Solvation  Ediel_sol  =         0.00000000
  ---------------------------------------------------
  free energy    TOTEN  =       -14.17287083 eV

  energy without entropy =      -14.17287083  energy(sigma->0) =      -14.17287083


--------------------------------------------------------------------------------------------------------




 average (electrostatic) potential at core
  the test charge radii are     0.5201  0.7215
  (the norm of the test charge is              1.0000)
       1 -44.8732       2 -44.8354       3 -80.7418



 E-fermi :  -7.1152     XC(G=0):  -0.1047     alpha+bet : -0.0163

 val. band max:       -7.1683554133   @ k =   0.0000   0.0000   0.0000
 cond. band min:      -1.0613208258   @ k =   0.0000   0.0000   0.0000
 fundamental gap:      6.1070345875
 Fermi energy:        -7.1152165686

 k-point     1 :       0.0000    0.0000    0.0000
  band No.  band energies     occupation 
      1     -25.3286      2.00000
      2     -13.1121      2.00000
      3      -9.2063      2.00000
      4      -7.1684      2.00000
      5      -1.0613      0.00000
      6       0.0119      0.00000
      7       0.1964      0.00000
      8       0.2973      0.00000
      9       0.3126      0.00000
     10       0.3412      0.00000
     11       0.3475      0.00000
     12       0.4630      0.00000
     13       0.4971      0.00000
     14       0.6017      0.00000
     15       0.6228      0.00000
     16       0.7079      0.00000
     17       0.7079      0.00000
     18       0.7131      0.00000
     19       0.7177      0.00000
     20       0.7221      0.00000
     21       0.7298      0.00000
     22       0.7308      0.00000
     23       0.7366      0.00000
     24       0.9373      0.00000
     25       0.9389      0.00000
     26       1.0203      0.00000
     27       1.0345      0.00000
     28       1.0808      0.00000
     29       1.0853      0.00000
     30       1.0882      0.00000
     31       1.1048      0.00000
     32       1.2538      0.00000


--------------------------------------------------------------------------------------------------------


 soft charge-density along one line, spin component           1
         0         1         2         3         4         5         6         7         8         9
 total charge-density along one line

 pseudopotential strength for first ion, spin component:           1
 -2.379  -4.110  -0.023   0.000   0.002
 -4.110  -7.013  -0.043   0.000   0.004
 -0.023  -0.043  -0.282  -0.000  -0.004
  0.000   0.000  -0.000  -0.326  -0.000
  0.002   0.004  -0.004  -0.000  -0.325
 total augmentation occupancy for first ion, spin component:           1
  3.980  -0.868   0.718  -0.000  -0.091
 -0.868   0.237  -0.153   0.000   0.025
  0.718  -0.153   0.130  -0.000  -0.015
 -0.000   0.000  -0.000   0.039  -0.000
 -0.091   0.025  -0.015  -0.000   0.027


------------------------ aborting loop because EDIFF is reached ----------------------------------------


    CHARGE:  cpu time      0.0638: real time      0.0652
    FORLOC:  cpu time      0.0019: real time      0.0019
    FORNL :  cpu time      0.2459: real time      0.2489
    STRESS:  cpu time      1.6631: real time      1.6765
    FORCOR:  cpu time      0.2327: real time      0.2340
    FORHAR:  cpu time      0.0146: real time      0.0147
    MIXING:  cpu time      0.0037: real time      0.0037
    OFIELD:  cpu time      0.0000: real time      0.0000

 ---------------------------------------------------------------------------------------------

         DFTD3 V3.0 Rev 1        
 Edisp (eV)   -0.00140

 E6    (eV) :    -0.0013
 E8    (eV) :    -0.0001
 % E8        :  5.25
    FORVDW:  cpu time      0.0080: real time      0.0081

  FORCE on cell =-STRESS in cart. coord.  units (eV):
  Direction    XX          YY          ZZ          XY          YZ          ZX
  --------------------------------------------------------------------------------------
  Alpha Z     0.02803     0.02803     0.02803
  Ewald      56.85502    86.78276   -21.81652    23.96151    -0.00009     0.00018
  Hartree   174.85790   179.99853   160.68212     4.17464    -0.00002     0.00003
  E(xc)     -36.32869   -36.17919   -36.77999     0.12174    -0.00000     0.00000
  Local    -317.51823  -344.15163  -248.71141   -21.44212     0.00008    -0.00016
  n-local   -30.69151   -30.29641   -30.84184     0.35357    -0.00000     0.00000
  augment     6.46484     5.94314     8.09371    -0.42184     0.00000    -0.00000
  Kinetic   145.59659   137.22768   168.51655    -6.81433     0.00002    -0.00006
  Fock        0.00000     0.00000     0.00000     0.00000     0.00000     0.00000
  vdW         0.00283     0.00826    -0.00000     0.00443     0.00000     0.00000
  -------------------------------------------------------------------------------------
  Total      -0.73323    -0.63884    -0.82936    -0.06240     0.00000     0.00000
  in kB      -0.14684    -0.12794    -0.16610    -0.01250     0.00000     0.00000
  external pressure =       -0.15 kB  Pullay stress =        0.00 kB


 VOLUME and BASIS-vectors are now :
 -----------------------------------------------------------------------------
  energy-cutoff  :      400.00
  volume of cell :     8000.00
      direct lattice vectors                 reciprocal lattice vectors
    20.000000000  0.000000000  0.000000000     0.050000000  0.000000000  0.000000000
     0.000000000 20.000000000  0.000000000     0.000000000  0.050000000  0.000000000
     0.000000000  0.000000000 20.000000000     0.000000000  0.000000000  0.050000000

  length of vectors
    20.000000000 20.000000000 20.000000000     0.050000000  0.050000000  0.050000000


 FORCES acting on ions
    electron-ion (+dipol)            ewald-force                    non-local-force                 convergence-correction
 -----------------------------------------------------------------------------------------------
   -.908E+01 0.877E+02 -.150E-03   0.101E+02 -.961E+02 0.165E-03   -.882E+00 0.830E+01 -.134E-04   -.143E-06 0.429E-07 0.104E-08
   -.791E+02 -.382E+02 -.164E-03   0.865E+02 0.417E+02 0.180E-03   -.745E+01 -.357E+01 -.159E-04   0.723E-07 0.414E-07 0.966E-09
   0.539E+02 -.303E+02 0.196E-03   -.966E+02 0.544E+02 -.345E-03   0.426E+02 -.239E+02 0.149E-03   -.127E-05 -.201E-05 0.157E-07
 -----------------------------------------------------------------------------------------------
   -.343E+02 0.191E+02 -.118E-03   0.000E+00 0.000E+00 0.401E-17   0.343E+02 -.191E+02 0.119E-03   -.135E-05 -.193E-05 0.177E-07


 POSITION                                       TOTAL-FORCE (eV/Angst)
 -----------------------------------------------------------------------------------
      9.78755      9.62347     10.00000         0.098196     -0.102718      0.000001
     10.54234     10.97263     10.00000         0.000462     -0.090073     -0.000000
      9.65011     10.58390     10.00000        -0.098657      0.192791     -0.000001
 -----------------------------------------------------------------------------------
    total drift:                               -0.008464      0.004994      0.000001


--------------------------------------------------------------------------------------------------------



  FREE ENERGIE OF THE ION-ELECTRON SYSTEM (eV)
  ---------------------------------------------------
  free  energy   TOTEN  =       -14.17427529 eV

  energy  without entropy=      -14.17427529  energy(sigma->0) =      -14.17427529

 d Force = 0.1463531E-03[-0.393E-02, 0.422E-02]  d Energy = 0.1690410E-03-0.227E-04
 d Force =-0.4724201E+00[-0.402E+00,-0.542E+00]  d Ewald  =-0.4730979E+00 0.678E-03


--------------------------------------------------------------------------------------------------------


    POTLOK:  cpu time      0.2019: real time      0.2034


--------------------------------------------------------------------------------------------------------


 Finite differences progress:
  Degree of freedom:   1/  9
  Displacement:        2/  2
  Total:               2/ 18
    WAVPRE:  cpu time      0.0100: real time      0.0111
    FEWALD:  cpu time      0.0003: real time      0.0003
    ORTHCH:  cpu time      0.0149: real time      0.0150
     LOOP+:  cpu time     10.8025: real time     10.9250


--------------------------------------- Ionic step        4  -------------------------------------------




--------------------------------------- Iteration      4(   1)  ---------------------------------------


    POTLOK:  cpu time      0.0704: real time      0.0716
    SETDIJ:  cpu time      0.1020: real time      0.1028
     EDDAV:  cpu time      0.1736: real time      0.1754
       DOS:  cpu time      0.0007: real time      0.0012
    CHARGE:  cpu time      0.0638: real time      0.0644
    MIXING:  cpu time      0.0027: real time      0.0027
    --------------------------------------------
      LOOP:  cpu time      0.4131: real time      0.4182

 eigenvalue-minimisations  :    64
 total energy-change (2. order) : 0.8792955E-02  (-0.2848330E-01)
 number of electron       8.0000001 magnetization 
 augmentation part        0.6897372 magnetization 

 Broyden mixing:
  rms(total) = 0.22066E-01    rms(broyden)= 0.22034E-01
  rms(prec ) = 0.23054E-01
  weight for this iteration     100.00

 Free energy of the ion-electron system (eV)
  ---------------------------------------------------
  alpha Z        PSCENC =         0.02803141
  Ewald energy   TEWEN  =       123.54630957
  -Hartree energ DENC   =      -516.43782653
  -exchange      EXHF   =         0.00000000
  -V(xc)+E(xc)   XCENC  =        33.67275979
  PAW double counting   =       562.83744387     -564.58760770
  entropy T*S    EENTRO =        -0.00000000
  eigenvalues    EBANDS =      -110.49300818
  atomic energy  EATOM  =       457.26981990
  Solvation  Ediel_sol  =         0.00000000
  ---------------------------------------------------
  free energy    TOTEN  =       -14.16407787 eV

  energy without entropy =      -14.16407787  energy(sigma->0) =      -14.16407787


--------------------------------------------------------------------------------------------------------




--------------------------------------- Iteration      4(   2)  ---------------------------------------


    POTLOK:  cpu time      0.0638: real time      0.0649
    SETDIJ:  cpu time      0.0901: real time      0.0907
     EDDAV:  cpu time      0.3157: real time      0.3188
       DOS:  cpu time      0.0008: real time      0.0013
    CHARGE:  cpu time      0.0646: real time      0.0653
    MIXING:  cpu time      0.0026: real time      0.0026
    --------------------------------------------
      LOOP:  cpu time      0.5375: real time      0.5437

 eigenvalue-minimisations  :   128
 total energy-change (2. order) : 0.3097781E-03  (-0.3938319E-03)
 number of electron       8.0000001 magnetization 
 augmentation part        0.6884456 magnetization 

 Broyden mixing:
  rms(total) = 0.12481E-01    rms(broyden)= 0.12465E-01
  rms(prec ) = 0.12878E-01
  weight for this iteration     100.00

 eigenvalues of (default mixing * dielectric matrix)
  average eigenvalue GAMMA=   1.5849
  1.5849

 Free energy of the ion-electron system (eV)
  ---------------------------------------------------
  alpha Z        PSCENC =         0.02803141
  Ewald energy   TEWEN  =       123.54630957
  -Hartree energ DENC   =      -516.77195838
  -exchange      EXHF   =         0.00000000
  -V(xc)+E(xc)   XCENC  =        33.69019484
  PAW double counting   =       565.38329137     -567.13718215
  entropy T*S    EENTRO =        -0.00000000
  eigenvalues    EBANDS =      -110.17227465
  atomic energy  EATOM  =       457.26981990
  Solvation  Ediel_sol  =         0.00000000
  ---------------------------------------------------
  free energy    TOTEN  =       -14.16376809 eV

  energy without entropy =      -14.16376809  energy(sigma->0) =      -14.16376809


--------------------------------------------------------------------------------------------------------




--------------------------------------- Iteration      4(   3)  ---------------------------------------


    POTLOK:  cpu time      0.0650: real time      0.0656
    SETDIJ:  cpu time      0.0905: real time      0.0912
     EDDAV:  cpu time      0.2351: real time      0.2375
       DOS:  cpu time      0.0007: real time      0.0007
    CHARGE:  cpu time      0.0650: real time      0.0663
    MIXING:  cpu time      0.0020: real time      0.0020
    --------------------------------------------
      LOOP:  cpu time      0.4583: real time      0.4632

 eigenvalue-minimisations  :    96
 total energy-change (2. order) : 0.1026942E-04  (-0.2558062E-04)
 number of electron       8.0000001 magnetization 
 augmentation part        0.6881309 magnetization 

 Broyden mixing:
  rms(total) = 0.46291E-02    rms(broyden)= 0.46253E-02
  rms(prec ) = 0.47979E-02
  weight for this iteration     100.00

 eigenvalues of (default mixing * dielectric matrix)
  average eigenvalue GAMMA=   1.7115
  1.1457  2.2774

 Free energy of the ion-electron system (eV)
  ---------------------------------------------------
  alpha Z        PSCENC =         0.02803141
  Ewald energy   TEWEN  =       123.54630957
  -Hartree energ DENC   =      -516.85723048
  -exchange      EXHF   =         0.00000000
  -V(xc)+E(xc)   XCENC  =        33.69420971
  PAW double counting   =       567.23837070     -568.99351238
  entropy T*S    EENTRO =        -0.00000000
  eigenvalues    EBANDS =      -110.08975625
  atomic energy  EATOM  =       457.26981990
  Solvation  Ediel_sol  =         0.00000000
  ---------------------------------------------------
  free energy    TOTEN  =       -14.16375782 eV

  energy without entropy =      -14.16375782  energy(sigma->0) =      -14.16375782


--------------------------------------------------------------------------------------------------------




--------------------------------------- Iteration      4(   4)  ---------------------------------------


    POTLOK:  cpu time      0.0653: real time      0.0664
    SETDIJ:  cpu time      0.0905: real time      0.0911
     EDDAV:  cpu time      0.3207: real time      0.3240
       DOS:  cpu time      0.0008: real time      0.0014
    CHARGE:  cpu time      0.0635: real time      0.0641
    MIXING:  cpu time      0.0036: real time      0.0036
    --------------------------------------------
      LOOP:  cpu time      0.5443: real time      0.5506

 eigenvalue-minimisations  :   128
 total energy-change (2. order) :-0.4095731E-04  (-0.6280286E-05)
 number of electron       8.0000001 magnetization 
 augmentation part        0.6882671 magnetization 

 Broyden mixing:
  rms(total) = 0.84104E-03    rms(broyden)= 0.84073E-03
  rms(prec ) = 0.97043E-03
  weight for this iteration     100.00

 eigenvalues of (default mixing * dielectric matrix)
  average eigenvalue GAMMA=   1.7193
  2.5871  1.2853  1.2853

 Free energy of the ion-electron system (eV)
  ---------------------------------------------------
  alpha Z        PSCENC =         0.02803141
  Ewald energy   TEWEN  =       123.54630957
  -Hartree energ DENC   =      -516.84369483
  -exchange      EXHF   =         0.00000000
  -V(xc)+E(xc)   XCENC  =        33.69316129
  PAW double counting   =       568.12912130     -569.88420655
  entropy T*S    EENTRO =        -0.00000000
  eigenvalues    EBANDS =      -110.10234088
  atomic energy  EATOM  =       457.26981990
  Solvation  Ediel_sol  =         0.00000000
  ---------------------------------------------------
  free energy    TOTEN  =       -14.16379878 eV

  energy without entropy =      -14.16379878  energy(sigma->0) =      -14.16379878


--------------------------------------------------------------------------------------------------------




--------------------------------------- Iteration      4(   5)  ---------------------------------------


    POTLOK:  cpu time      0.0642: real time      0.0647
    SETDIJ:  cpu time      0.0902: real time      0.0908
     EDDAV:  cpu time      0.2383: real time      0.2408
       DOS:  cpu time      0.0008: real time      0.0008
    CHARGE:  cpu time      0.0639: real time      0.0651
    MIXING:  cpu time      0.0029: real time      0.0029
    --------------------------------------------
      LOOP:  cpu time      0.4602: real time      0.4651

 eigenvalue-minimisations  :    96
 total energy-change (2. order) :-0.2972504E-04  (-0.8237084E-06)
 number of electron       8.0000001 magnetization 
 augmentation part        0.6881729 magnetization 

 Broyden mixing:
  rms(total) = 0.38794E-03    rms(broyden)= 0.38750E-03
  rms(prec ) = 0.48702E-03
  weight for this iteration     100.00

 eigenvalues of (default mixing * dielectric matrix)
  average eigenvalue GAMMA=   1.6367
  2.6274  1.9630  1.1305  0.8259

 Free energy of the ion-electron system (eV)
  ---------------------------------------------------
  alpha Z        PSCENC =         0.02803141
  Ewald energy   TEWEN  =       123.54630957
  -Hartree energ DENC   =      -516.85082246
  -exchange      EXHF   =         0.00000000
  -V(xc)+E(xc)   XCENC  =        33.69351336
  PAW double counting   =       568.32562618     -570.08089423
  entropy T*S    EENTRO =        -0.00000000
  eigenvalues    EBANDS =      -110.09541224
  atomic energy  EATOM  =       457.26981990
  Solvation  Ediel_sol  =         0.00000000
  ---------------------------------------------------
  free energy    TOTEN  =       -14.16382850 eV

  energy without entropy =      -14.16382850  energy(sigma->0) =      -14.16382850


--------------------------------------------------------------------------------------------------------




--------------------------------------- Iteration      4(   6)  ---------------------------------------


    POTLOK:  cpu time      0.0630: real time      0.0650
    SETDIJ:  cpu time      0.0899: real time      0.0905
     EDDAV:  cpu time      0.3212: real time      0.3248
       DOS:  cpu time      0.0008: real time      0.0008
    CHARGE:  cpu time      0.0641: real time      0.0654
    MIXING:  cpu time      0.0025: real time      0.0026
    --------------------------------------------
      LOOP:  cpu time      0.5415: real time      0.5491

 eigenvalue-minimisations  :   128
 total energy-change (2. order) :-0.2110731E-04  (-0.2315773E-06)
 number of electron       8.0000001 magnetization 
 augmentation part        0.6881952 magnetization 

 Broyden mixing:
  rms(total) = 0.14474E-03    rms(broyden)= 0.14458E-03
  rms(prec ) = 0.25548E-03
  weight for this iteration     100.00

 eigenvalues of (default mixing * dielectric matrix)
  average eigenvalue GAMMA=   1.7193
  2.6930  1.9443  1.9443  0.9372  1.0776

 Free energy of the ion-electron system (eV)
  ---------------------------------------------------
  alpha Z        PSCENC =         0.02803141
  Ewald energy   TEWEN  =       123.54630957
  -Hartree energ DENC   =      -516.84363250
  -exchange      EXHF   =         0.00000000
  -V(xc)+E(xc)   XCENC  =        33.69313129
  PAW double counting   =       568.29516175     -570.05025045
  entropy T*S    EENTRO =        -0.00000000
  eigenvalues    EBANDS =      -110.10242059
  atomic energy  EATOM  =       457.26981990
  Solvation  Ediel_sol  =         0.00000000
  ---------------------------------------------------
  free energy    TOTEN  =       -14.16384961 eV

  energy without entropy =      -14.16384961  energy(sigma->0) =      -14.16384961


--------------------------------------------------------------------------------------------------------




--------------------------------------- Iteration      4(   7)  ---------------------------------------


    POTLOK:  cpu time      0.0651: real time      0.0656
    SETDIJ:  cpu time      0.0902: real time      0.0909
     EDDAV:  cpu time      0.3180: real time      0.3210
       DOS:  cpu time      0.0008: real time      0.0008
    CHARGE:  cpu time      0.0638: real time      0.0650
    MIXING:  cpu time      0.0033: real time      0.0033
    --------------------------------------------
      LOOP:  cpu time      0.5412: real time      0.5466

 eigenvalue-minimisations  :   128
 total energy-change (2. order) :-0.2829789E-04  (-0.3001852E-06)
 number of electron       8.0000001 magnetization 
 augmentation part        0.6882105 magnetization 

 Broyden mixing:
  rms(total) = 0.79391E-04    rms(broyden)= 0.79220E-04
  rms(prec ) = 0.15145E-03
  weight for this iteration     100.00

 eigenvalues of (default mixing * dielectric matrix)
  average eigenvalue GAMMA=   1.7999
  3.3223  2.4984  1.8129  1.0052  1.0052  1.1555

 Free energy of the ion-electron system (eV)
  ---------------------------------------------------
  alpha Z        PSCENC =         0.02803141
  Ewald energy   TEWEN  =       123.54630957
  -Hartree energ DENC   =      -516.84009452
  -exchange      EXHF   =         0.00000000
  -V(xc)+E(xc)   XCENC  =        33.69294483
  PAW double counting   =       568.27562098     -570.03053591
  entropy T*S    EENTRO =        -0.00000000
  eigenvalues    EBANDS =      -110.10597418
  atomic energy  EATOM  =       457.26981990
  Solvation  Ediel_sol  =         0.00000000
  ---------------------------------------------------
  free energy    TOTEN  =       -14.16387791 eV

  energy without entropy =      -14.16387791  energy(sigma->0) =      -14.16387791


--------------------------------------------------------------------------------------------------------




--------------------------------------- Iteration      4(   8)  ---------------------------------------


    POTLOK:  cpu time      0.0654: real time      0.0660
    SETDIJ:  cpu time      0.0904: real time      0.0910
     EDDAV:  cpu time      0.1725: real time      0.1746
       DOS:  cpu time      0.0009: real time      0.0009
    CHARGE:  cpu time      0.0635: real time      0.0648
    MIXING:  cpu time      0.0032: real time      0.0032
    --------------------------------------------
      LOOP:  cpu time      0.3958: real time      0.4005

 eigenvalue-minimisations  :    64
 total energy-change (2. order) :-0.1699204E-04  (-0.1633668E-06)
 number of electron       8.0000001 magnetization 
 augmentation part        0.6882019 magnetization 

 Broyden mixing:
  rms(total) = 0.56937E-04    rms(broyden)= 0.56781E-04
  rms(prec ) = 0.94071E-04
  weight for this iteration     100.00

 eigenvalues of (default mixing * dielectric matrix)
  average eigenvalue GAMMA=   2.0123
  4.4388  2.5812  2.0226  2.0226  1.0045  1.0045  1.0122

 Free energy of the ion-electron system (eV)
  ---------------------------------------------------
  alpha Z        PSCENC =         0.02803141
  Ewald energy   TEWEN  =       123.54630957
  -Hartree energ DENC   =      -516.84004949
  -exchange      EXHF   =         0.00000000
  -V(xc)+E(xc)   XCENC  =        33.69295088
  PAW double counting   =       568.26874716     -570.02364238
  entropy T*S    EENTRO =        -0.00000000
  eigenvalues    EBANDS =      -110.10606195
  atomic energy  EATOM  =       457.26981990
  Solvation  Ediel_sol  =         0.00000000
  ---------------------------------------------------
  free energy    TOTEN  =       -14.16389490 eV

  energy without entropy =      -14.16389490  energy(sigma->0) =      -14.16389490


--------------------------------------------------------------------------------------------------------




--------------------------------------- Iteration      4(   9)  ---------------------------------------


    POTLOK:  cpu time      0.1124: real time      0.1132
    SETDIJ:  cpu time      0.1405: real time      0.1412
     EDDAV:  cpu time      0.8696: real time      0.8750
       DOS:  cpu time      0.0007: real time      0.0007
    CHARGE:  cpu time      0.1538: real time      0.1571
    MIXING:  cpu time      0.0057: real time      0.0058
    --------------------------------------------
      LOOP:  cpu time      1.2826: real time      1.2931

 eigenvalue-minimisations  :   128
 total energy-change (2. order) :-0.1207472E-04  (-0.9429117E-07)
 number of electron       8.0000001 magnetization 
 augmentation part        0.6882006 magnetization 

 Broyden mixing:
  rms(total) = 0.22632E-04    rms(broyden)= 0.22301E-04
  rms(prec ) = 0.44353E-04
  weight for this iteration     100.00

 eigenvalues of (default mixing * dielectric matrix)
  average eigenvalue GAMMA=   2.1269
  5.4846  2.8707  2.4756  1.8532  1.2855  0.9747  1.0354  1.0354

 Free energy of the ion-electron system (eV)
  ---------------------------------------------------
  alpha Z        PSCENC =         0.02803141
  Ewald energy   TEWEN  =       123.54630957
  -Hartree energ DENC   =      -516.83980502
  -exchange      EXHF   =         0.00000000
  -V(xc)+E(xc)   XCENC  =        33.69293864
  PAW double counting   =       568.27127724     -570.02621883
  entropy T*S    EENTRO =        -0.00000000
  eigenvalues    EBANDS =      -110.10625989
  atomic energy  EATOM  =       457.26981990
  Solvation  Ediel_sol  =         0.00000000
  ---------------------------------------------------
  free energy    TOTEN  =       -14.16390697 eV

  energy without entropy =      -14.16390697  energy(sigma->0) =      -14.16390697


--------------------------------------------------------------------------------------------------------




--------------------------------------- Iteration      4(  10)  ---------------------------------------


    POTLOK:  cpu time      0.2023: real time      0.2040
    SETDIJ:  cpu time      0.1397: real time      0.1405
     EDDAV:  cpu time      0.1756: real time      0.1774
       DOS:  cpu time      0.0016: real time      0.0017
    CHARGE:  cpu time      0.0636: real time      0.0648
    MIXING:  cpu time      0.0042: real time      0.0042
    --------------------------------------------
      LOOP:  cpu time      0.5870: real time      0.5927

 eigenvalue-minimisations  :    64
 total energy-change (2. order) :-0.5196169E-05  (-0.2001589E-07)
 number of electron       8.0000001 magnetization 
 augmentation part        0.6882019 magnetization 

 Broyden mixing:
  rms(total) = 0.17883E-04    rms(broyden)= 0.17475E-04
  rms(prec ) = 0.27375E-04
  weight for this iteration     100.00

 eigenvalues of (default mixing * dielectric matrix)
  average eigenvalue GAMMA=   2.3151
  6.7523  3.3666  2.5828  2.1245  1.9340  0.9924  0.9924  1.0456  1.0456

 Free energy of the ion-electron system (eV)
  ---------------------------------------------------
  alpha Z        PSCENC =         0.02803141
  Ewald energy   TEWEN  =       123.54630957
  -Hartree energ DENC   =      -516.83963971
  -exchange      EXHF   =         0.00000000
  -V(xc)+E(xc)   XCENC  =        33.69292649
  PAW double counting   =       568.27394495     -570.02890506
  entropy T*S    EENTRO =        -0.00000000
  eigenvalues    EBANDS =      -110.10639971
  atomic energy  EATOM  =       457.26981990
  Solvation  Ediel_sol  =         0.00000000
  ---------------------------------------------------
  free energy    TOTEN  =       -14.16391217 eV

  energy without entropy =      -14.16391217  energy(sigma->0) =      -14.16391217


--------------------------------------------------------------------------------------------------------




--------------------------------------- Iteration      4(  11)  ---------------------------------------


    POTLOK:  cpu time      0.0697: real time      0.0704
    SETDIJ:  cpu time      0.0907: real time      0.0913
     EDDAV:  cpu time      0.3260: real time      0.3292
       DOS:  cpu time      0.0009: real time      0.0009
    CHARGE:  cpu time      0.0634: real time      0.0646
    MIXING:  cpu time      0.0032: real time      0.0032
    --------------------------------------------
      LOOP:  cpu time      0.5539: real time      0.5596

 eigenvalue-minimisations  :   128
 total energy-change (2. order) :-0.3074973E-05  (-0.7138816E-08)
 number of electron       8.0000001 magnetization 
 augmentation part        0.6882007 magnetization 

 Broyden mixing:
  rms(total) = 0.84498E-05    rms(broyden)= 0.75496E-05
  rms(prec ) = 0.12633E-04
  weight for this iteration     100.00
  WARNING: grid for Broyden might be to small

 eigenvalues of (default mixing * dielectric matrix)
  average eigenvalue GAMMA=   2.4063
  7.5958  3.8066  2.7519  2.3846  1.7874  1.6895  1.0462  1.0462  0.9775  0.9775

 Free energy of the ion-electron system (eV)
  ---------------------------------------------------
  alpha Z        PSCENC =         0.02803141
  Ewald energy   TEWEN  =       123.54630957
  -Hartree energ DENC   =      -516.83991286
  -exchange      EXHF   =         0.00000000
  -V(xc)+E(xc)   XCENC  =        33.69293593
  PAW double counting   =       568.27507169     -570.03002846
  entropy T*S    EENTRO =        -0.00000000
  eigenvalues    EBANDS =      -110.10614244
  atomic energy  EATOM  =       457.26981990
  Solvation  Ediel_sol  =         0.00000000
  ---------------------------------------------------
  free energy    TOTEN  =       -14.16391525 eV

  energy without entropy =      -14.16391525  energy(sigma->0) =      -14.16391525


--------------------------------------------------------------------------------------------------------




--------------------------------------- Iteration      4(  12)  ---------------------------------------


    POTLOK:  cpu time      0.0661: real time      0.0666
    SETDIJ:  cpu time      0.0903: real time      0.0910
     EDDAV:  cpu time      0.2425: real time      0.2449
       DOS:  cpu time      0.0009: real time      0.0009
    CHARGE:  cpu time      0.0633: real time      0.0646
    MIXING:  cpu time      0.0035: real time      0.0036
    --------------------------------------------
      LOOP:  cpu time      0.4666: real time      0.4715

 eigenvalue-minimisations  :    96
 total energy-change (2. order) :-0.1190296E-05  (-0.1333159E-08)
 number of electron       8.0000001 magnetization 
 augmentation part        0.6882018 magnetization 

 Broyden mixing:
  rms(total) = 0.67562E-05    rms(broyden)= 0.56050E-05
  rms(prec ) = 0.78495E-05
  weight for this iteration     100.00
  WARNING: grid for Broyden might be to small

 eigenvalues of (default mixing * dielectric matrix)
  average eigenvalue GAMMA=   2.4514
  8.0687  4.5069  2.8183  2.5022  2.1286  1.8762  1.0219  1.0219  0.9412  1.0396
  1.0396

 Free energy of the ion-electron system (eV)
  ---------------------------------------------------
  alpha Z        PSCENC =         0.02803141
  Ewald energy   TEWEN  =       123.54630957
  -Hartree energ DENC   =      -516.83977402
  -exchange      EXHF   =         0.00000000
  -V(xc)+E(xc)   XCENC  =        33.69292682
  PAW double counting   =       568.27357145     -570.02851551
  entropy T*S    EENTRO =        -0.00000000
  eigenvalues    EBANDS =      -110.10628606
  atomic energy  EATOM  =       457.26981990
  Solvation  Ediel_sol  =         0.00000000
  ---------------------------------------------------
  free energy    TOTEN  =       -14.16391644 eV

  energy without entropy =      -14.16391644  energy(sigma->0) =      -14.16391644


--------------------------------------------------------------------------------------------------------




--------------------------------------- Iteration      4(  13)  ---------------------------------------


    POTLOK:  cpu time      0.0659: real time      0.0665
    SETDIJ:  cpu time      0.0899: real time      0.0905
     EDDAV:  cpu time      0.3174: real time      0.3205
       DOS:  cpu time      0.0007: real time      0.0007
    CHARGE:  cpu time      0.0648: real time      0.0660
    MIXING:  cpu time      0.0028: real time      0.0028
    --------------------------------------------
      LOOP:  cpu time      0.5415: real time      0.5471

 eigenvalue-minimisations  :   128
 total energy-change (2. order) :-0.5720576E-06  (-0.4903100E-09)
 number of electron       8.0000001 magnetization 
 augmentation part        0.6882012 magnetization 

 Broyden mixing:
  rms(total) = 0.47061E-05    rms(broyden)= 0.28159E-05
  rms(prec ) = 0.42450E-05
  weight for this iteration     100.00
  WARNING: grid for Broyden might be to small

 eigenvalues of (default mixing * dielectric matrix)
  average eigenvalue GAMMA=   2.5131
  8.5562  4.7050  3.0167  2.6686  2.4992  1.8984  1.7594  1.0113  1.0113  1.0646
  0.9598  1.0065

 Free energy of the ion-electron system (eV)
  ---------------------------------------------------
  alpha Z        PSCENC =         0.02803141
  Ewald energy   TEWEN  =       123.54630957
  -Hartree energ DENC   =      -516.83990603
  -exchange      EXHF   =         0.00000000
  -V(xc)+E(xc)   XCENC  =        33.69293367
  PAW double counting   =       568.27325361     -570.02819881
  entropy T*S    EENTRO =        -0.00000000
  eigenvalues    EBANDS =      -110.10616032
  atomic energy  EATOM  =       457.26981990
  Solvation  Ediel_sol  =         0.00000000
  ---------------------------------------------------
  free energy    TOTEN  =       -14.16391701 eV

  energy without entropy =      -14.16391701  energy(sigma->0) =      -14.16391701


--------------------------------------------------------------------------------------------------------




--------------------------------------- Iteration      4(  14)  ---------------------------------------


    POTLOK:  cpu time      0.0661: real time      0.0673
    SETDIJ:  cpu time      0.0901: real time      0.0908
     EDDAV:  cpu time      0.3172: real time      0.3205
       DOS:  cpu time      0.0008: real time      0.0008
    CHARGE:  cpu time      0.0646: real time      0.0659
    MIXING:  cpu time      0.0029: real time      0.0029
    --------------------------------------------
      LOOP:  cpu time      0.5417: real time      0.5482

 eigenvalue-minimisations  :   128
 total energy-change (2. order) :-0.4365932E-06  (-0.2515002E-09)
 number of electron       8.0000001 magnetization 
 augmentation part        0.6882014 magnetization 

 Broyden mixing:
  rms(total) = 0.40309E-05    rms(broyden)= 0.14271E-05
  rms(prec ) = 0.19796E-05
  weight for this iteration     100.00
  WARNING: grid for Broyden might be to small

 eigenvalues of (default mixing * dielectric matrix)
  average eigenvalue GAMMA=   2.5441
  9.0007  5.4781  3.5978  2.6472  2.3850  2.0251  1.8307  1.0807  1.0807  1.0076
  1.0076  0.9442  0.9873

 Free energy of the ion-electron system (eV)
  ---------------------------------------------------
  alpha Z        PSCENC =         0.02803141
  Ewald energy   TEWEN  =       123.54630957
  -Hartree energ DENC   =      -516.83983372
  -exchange      EXHF   =         0.00000000
  -V(xc)+E(xc)   XCENC  =        33.69292987
  PAW double counting   =       568.27347446     -570.02842285
  entropy T*S    EENTRO =        -0.00000000
  eigenvalues    EBANDS =      -110.10622609
  atomic energy  EATOM  =       457.26981990
  Solvation  Ediel_sol  =         0.00000000
  ---------------------------------------------------
  free energy    TOTEN  =       -14.16391744 eV

  energy without entropy =      -14.16391744  energy(sigma->0) =      -14.16391744


--------------------------------------------------------------------------------------------------------




--------------------------------------- Iteration      4(  15)  ---------------------------------------


    POTLOK:  cpu time      0.0665: real time      0.0670
    SETDIJ:  cpu time      0.0902: real time      0.0909
     EDDAV:  cpu time      0.1690: real time      0.1707
       DOS:  cpu time      0.0009: real time      0.0009
    CHARGE:  cpu time      0.0636: real time      0.0648
    MIXING:  cpu time      0.0040: real time      0.0040
    --------------------------------------------
      LOOP:  cpu time      0.3942: real time      0.3984

 eigenvalue-minimisations  :    64
 total energy-change (2. order) :-0.8841971E-07  (-0.2055067E-10)
 number of electron       8.0000001 magnetization 
 augmentation part        0.6882012 magnetization 

 Broyden mixing:
  rms(total) = 0.38538E-05    rms(broyden)= 0.80085E-06
  rms(prec ) = 0.12249E-05
  weight for this iteration     100.00
  WARNING: grid for Broyden might be to small

 eigenvalues of (default mixing * dielectric matrix)
  average eigenvalue GAMMA=   2.6687
  9.2791  6.2316  4.0464  3.0522  2.5267  2.2880  2.0113  1.7857  1.1252  1.0050
  1.0050  0.9404  1.0467  1.0188

 Free energy of the ion-electron system (eV)
  ---------------------------------------------------
  alpha Z        PSCENC =         0.02803141
  Ewald energy   TEWEN  =       123.54630957
  -Hartree energ DENC   =      -516.83985371
  -exchange      EXHF   =         0.00000000
  -V(xc)+E(xc)   XCENC  =        33.69293091
  PAW double counting   =       568.27353123     -570.02847963
  entropy T*S    EENTRO =        -0.00000000
  eigenvalues    EBANDS =      -110.10620722
  atomic energy  EATOM  =       457.26981990
  Solvation  Ediel_sol  =         0.00000000
  ---------------------------------------------------
  free energy    TOTEN  =       -14.16391753 eV

  energy without entropy =      -14.16391753  energy(sigma->0) =      -14.16391753


--------------------------------------------------------------------------------------------------------




--------------------------------------- Iteration      4(  16)  ---------------------------------------


    POTLOK:  cpu time      0.0677: real time      0.0686
    SETDIJ:  cpu time      0.0898: real time      0.0904
     EDDAV:  cpu time      0.3205: real time      0.3237
       DOS:  cpu time      0.0008: real time      0.0008
    CHARGE:  cpu time      0.0634: real time      0.0646
    MIXING:  cpu time      0.0042: real time      0.0042
    --------------------------------------------
      LOOP:  cpu time      0.5464: real time      0.5524

 eigenvalue-minimisations  :   128
 total energy-change (2. order) :-0.1409328E-06  (-0.4275158E-10)
 number of electron       8.0000001 magnetization 
 augmentation part        0.6882013 magnetization 

 Broyden mixing:
  rms(total) = 0.37827E-05    rms(broyden)= 0.31430E-06
  rms(prec ) = 0.44731E-06
  weight for this iteration     100.00
  WARNING: grid for Broyden might be to small

 eigenvalues of (default mixing * dielectric matrix)
  average eigenvalue GAMMA=   2.6383
  9.5402  6.5738  4.3943  3.1507  2.6173  2.3140  2.0045  1.7923  1.0986  1.0986
  1.0254  1.0254  0.9924  0.9924  0.9545

 Free energy of the ion-electron system (eV)
  ---------------------------------------------------
  alpha Z        PSCENC =         0.02803141
  Ewald energy   TEWEN  =       123.54630957
  -Hartree energ DENC   =      -516.83983992
  -exchange      EXHF   =         0.00000000
  -V(xc)+E(xc)   XCENC  =        33.69293014
  PAW double counting   =       568.27360538     -570.02855340
  entropy T*S    EENTRO =        -0.00000000
  eigenvalues    EBANDS =      -110.10622076
  atomic energy  EATOM  =       457.26981990
  Solvation  Ediel_sol  =         0.00000000
  ---------------------------------------------------
  free energy    TOTEN  =       -14.16391767 eV

  energy without entropy =      -14.16391767  energy(sigma->0) =      -14.16391767


--------------------------------------------------------------------------------------------------------




--------------------------------------- Iteration      4(  17)  ---------------------------------------


    POTLOK:  cpu time      0.0671: real time      0.0677
    SETDIJ:  cpu time      0.0900: real time      0.0907
     EDDAV:  cpu time      0.1692: real time      0.1709
       DOS:  cpu time      0.0009: real time      0.0009
    CHARGE:  cpu time      0.0634: real time      0.0646
    MIXING:  cpu time      0.0034: real time      0.0034
    --------------------------------------------
      LOOP:  cpu time      0.3940: real time      0.3981

 eigenvalue-minimisations  :    64
 total energy-change (2. order) :-0.1868932E-07  (-0.1082512E-10)
 number of electron       8.0000001 magnetization 
 augmentation part        0.6882013 magnetization 

 Broyden mixing:
  rms(total) = 0.37740E-05    rms(broyden)= 0.18062E-06
  rms(prec ) = 0.27895E-06
  weight for this iteration     100.00
  WARNING: grid for Broyden might be to small

 eigenvalues of (default mixing * dielectric matrix)
  average eigenvalue GAMMA=   2.7480
  9.7189  7.0714  4.8781  3.6109  2.8767  2.5801  2.2759  2.0132  1.7709  1.1780
  1.0129  1.0129  1.0292  1.0292  0.9667  0.9427

 Free energy of the ion-electron system (eV)
  ---------------------------------------------------
  alpha Z        PSCENC =         0.02803141
  Ewald energy   TEWEN  =       123.54630957
  -Hartree energ DENC   =      -516.83984495
  -exchange      EXHF   =         0.00000000
  -V(xc)+E(xc)   XCENC  =        33.69293043
  PAW double counting   =       568.27360858     -570.02855660
  entropy T*S    EENTRO =        -0.00000000
  eigenvalues    EBANDS =      -110.10621604
  atomic energy  EATOM  =       457.26981990
  Solvation  Ediel_sol  =         0.00000000
  ---------------------------------------------------
  free energy    TOTEN  =       -14.16391769 eV

  energy without entropy =      -14.16391769  energy(sigma->0) =      -14.16391769


--------------------------------------------------------------------------------------------------------




--------------------------------------- Iteration      4(  18)  ---------------------------------------


    POTLOK:  cpu time      0.0673: real time      0.0679
    SETDIJ:  cpu time      0.0902: real time      0.0908
     EDDAV:  cpu time      0.3143: real time      0.3174
       DOS:  cpu time      0.0008: real time      0.0008
    CHARGE:  cpu time      0.0647: real time      0.0659
    MIXING:  cpu time      0.0034: real time      0.0034
    --------------------------------------------
      LOOP:  cpu time      0.5407: real time      0.5462

 eigenvalue-minimisations  :   128
 total energy-change (2. order) :-0.1797639E-07  (-0.1438316E-10)
 number of electron       8.0000001 magnetization 
 augmentation part        0.6882013 magnetization 

 Broyden mixing:
  rms(total) = 0.37705E-05    rms(broyden)= 0.80780E-07
  rms(prec ) = 0.11273E-06
  weight for this iteration     100.00
  WARNING: grid for Broyden might be to small

 eigenvalues of (default mixing * dielectric matrix)
  average eigenvalue GAMMA=   2.6875
  9.8154  7.1809  5.0401  3.7504  2.8987  2.5832  2.2983  1.9647  1.7764  1.1923
  1.1923  1.0402  1.0402  0.9932  0.9932  0.9390  0.9886

 Free energy of the ion-electron system (eV)
  ---------------------------------------------------
  alpha Z        PSCENC =         0.02803141
  Ewald energy   TEWEN  =       123.54630957
  -Hartree energ DENC   =      -516.83984492
  -exchange      EXHF   =         0.00000000
  -V(xc)+E(xc)   XCENC  =        33.69293045
  PAW double counting   =       568.27354211     -570.02849001
  entropy T*S    EENTRO =        -0.00000000
  eigenvalues    EBANDS =      -110.10621623
  atomic energy  EATOM  =       457.26981990
  Solvation  Ediel_sol  =         0.00000000
  ---------------------------------------------------
  free energy    TOTEN  =       -14.16391771 eV

  energy without entropy =      -14.16391771  energy(sigma->0) =      -14.16391771


--------------------------------------------------------------------------------------------------------




--------------------------------------- Iteration      4(  19)  ---------------------------------------


    POTLOK:  cpu time      0.0661: real time      0.0671
    SETDIJ:  cpu time      0.0906: real time      0.0912
     EDDAV:  cpu time      0.1691: real time      0.1709
       DOS:  cpu time      0.0007: real time      0.0007
    --------------------------------------------
      LOOP:  cpu time      0.3265: real time      0.3299

 eigenvalue-minimisations  :    64
 total energy-change (2. order) :-0.1393687E-08  (-0.1326583E-10)
 number of electron       8.0000001 magnetization 
 augmentation part        0.6882013 magnetization 

 Free energy of the ion-electron system (eV)
  ---------------------------------------------------
  alpha Z        PSCENC =         0.02803141
  Ewald energy   TEWEN  =       123.54630957
  -Hartree energ DENC   =      -516.83984506
  -exchange      EXHF   =         0.00000000
  -V(xc)+E(xc)   XCENC  =        33.69293046
  PAW double counting   =       568.27355243     -570.02850036
  entropy T*S    EENTRO =        -0.00000000
  eigenvalues    EBANDS =      -110.10621608
  atomic energy  EATOM  =       457.26981990
  Solvation  Ediel_sol  =         0.00000000
  ---------------------------------------------------
  free energy    TOTEN  =       -14.16391771 eV

  energy without entropy =      -14.16391771  energy(sigma->0) =      -14.16391771


--------------------------------------------------------------------------------------------------------




 average (electrostatic) potential at core
  the test charge radii are     0.5201  0.7215
  (the norm of the test charge is              1.0000)
       1 -45.0987       2 -44.8470       3 -80.7612



 E-fermi :  -7.0773     XC(G=0):  -0.1045     alpha+bet : -0.0163

 val. band max:       -7.1928138071   @ k =   0.0000   0.0000   0.0000
 cond. band min:      -1.0428391388   @ k =   0.0000   0.0000   0.0000
 fundamental gap:      6.1499746682
 Fermi energy:        -7.0773023477

 k-point     1 :       0.0000    0.0000    0.0000
  band No.  band energies     occupation 
      1     -25.4506      2.00000
      2     -13.1243      2.00000
      3      -9.2854      2.00000
      4      -7.1928      2.00000
      5      -1.0428      0.00000
      6       0.0121      0.00000
      7       0.2049      0.00000
      8       0.2974      0.00000
      9       0.3122      0.00000
     10       0.3411      0.00000
     11       0.3481      0.00000
     12       0.4636      0.00000
     13       0.5025      0.00000
     14       0.6022      0.00000
     15       0.6234      0.00000
     16       0.7077      0.00000
     17       0.7080      0.00000
     18       0.7133      0.00000
     19       0.7171      0.00000
     20       0.7213      0.00000
     21       0.7294      0.00000
     22       0.7316      0.00000
     23       0.7367      0.00000
     24       0.9376      0.00000
     25       0.9445      0.00000
     26       1.0207      0.00000
     27       1.0350      0.00000
     28       1.0815      0.00000
     29       1.0850      0.00000
     30       1.0881      0.00000
     31       1.1043      0.00000
     32       1.2580      0.00000


--------------------------------------------------------------------------------------------------------


 soft charge-density along one line, spin component           1
         0         1         2         3         4         5         6         7         8         9
 total charge-density along one line

 pseudopotential strength for first ion, spin component:           1
 -2.381  -4.113  -0.024   0.000   0.003
 -4.113  -7.019  -0.044   0.000   0.005
 -0.024  -0.044  -0.279  -0.000  -0.005
  0.000   0.000  -0.000  -0.325  -0.000
  0.003   0.005  -0.005  -0.000  -0.323
 total augmentation occupancy for first ion, spin component:           1
  4.061  -0.881   0.761  -0.000  -0.116
 -0.881   0.244  -0.159   0.000   0.029
  0.761  -0.159   0.144  -0.000  -0.020
 -0.000   0.000  -0.000   0.043  -0.000
 -0.116   0.029  -0.020  -0.000   0.031


------------------------ aborting loop because EDIFF is reached ----------------------------------------


    CHARGE:  cpu time      0.0638: real time      0.0645
    FORLOC:  cpu time      0.0023: real time      0.0023
    FORNL :  cpu time      0.2454: real time      0.2482
    STRESS:  cpu time      0.9235: real time      0.9336
    FORCOR:  cpu time      0.0579: real time      0.0583
    FORHAR:  cpu time      0.0163: real time      0.0164
    MIXING:  cpu time      0.0030: real time      0.0031
    OFIELD:  cpu time      0.0000: real time      0.0000

 ---------------------------------------------------------------------------------------------

         DFTD3 V3.0 Rev 1        
 Edisp (eV)   -0.00123

 E6    (eV) :    -0.0012
 E8    (eV) :    -0.0001
 % E8        :  5.24
    FORVDW:  cpu time      0.0079: real time      0.0080

  FORCE on cell =-STRESS in cart. coord.  units (eV):
  Direction    XX          YY          ZZ          XY          YZ          ZX
  --------------------------------------------------------------------------------------
  Alpha Z     0.02803     0.02803     0.02803
  Ewald      57.53789    87.82443   -21.81600    21.74079    -0.00009     0.00019
  Hartree   175.47992   180.21365   161.14627     3.79924    -0.00002     0.00003
  E(xc)     -36.39269   -36.25573   -36.84857     0.10882    -0.00000     0.00000
  Local    -318.83303  -344.76582  -249.35506   -19.45289     0.00008    -0.00016
  n-local   -30.83073   -30.55528   -30.93806     0.42610     0.00000     0.00000
  augment     6.47385     5.94383     8.11217    -0.39647     0.00000    -0.00000
  Kinetic   145.78293   137.84040   168.84175    -6.32360     0.00002    -0.00006
  Fock        0.00000     0.00000     0.00000     0.00000     0.00000     0.00000
  vdW         0.00249     0.00724    -0.00000     0.00385     0.00000     0.00000
  -------------------------------------------------------------------------------------
  Total      -0.75134     0.28076    -0.82947    -0.09415    -0.00000     0.00000
  in kB      -0.15047     0.05623    -0.16612    -0.01885    -0.00000     0.00000
  external pressure =       -0.09 kB  Pullay stress =        0.00 kB


 VOLUME and BASIS-vectors are now :
 -----------------------------------------------------------------------------
  energy-cutoff  :      400.00
  volume of cell :     8000.00
      direct lattice vectors                 reciprocal lattice vectors
    20.000000000  0.000000000  0.000000000     0.050000000  0.000000000  0.000000000
     0.000000000 20.000000000  0.000000000     0.000000000  0.050000000  0.000000000
     0.000000000  0.000000000 20.000000000     0.000000000  0.000000000  0.050000000

  length of vectors
    20.000000000 20.000000000 20.000000000     0.050000000  0.050000000  0.050000000


 FORCES acting on ions
    electron-ion (+dipol)            ewald-force                    non-local-force                 convergence-correction
 -----------------------------------------------------------------------------------------------
   -.114E+02 0.893E+02 -.156E-03   0.127E+02 -.991E+02 0.174E-03   -.118E+01 0.879E+01 -.144E-04   -.287E-07 0.280E-07 -.118E-09
   -.792E+02 -.383E+02 -.164E-03   0.866E+02 0.419E+02 0.180E-03   -.745E+01 -.356E+01 -.160E-04   -.368E-07 -.403E-07 -.941E-10
   0.558E+02 -.321E+02 0.202E-03   -.993E+02 0.573E+02 -.354E-03   0.433E+02 -.241E+02 0.151E-03   0.319E-06 -.506E-06 -.442E-09
 -----------------------------------------------------------------------------------------------
   -.347E+02 0.189E+02 -.119E-03   0.000E+00 0.000E+00 0.401E-17   0.347E+02 -.189E+02 0.120E-03   0.254E-06 -.518E-06 -.654E-09


 POSITION                                       TOTAL-FORCE (eV/Angst)
 -----------------------------------------------------------------------------------
      9.80755      9.64347     10.00000         0.122759     -1.034792      0.000002
     10.54234     10.97263     10.00000        -0.026509      0.040961     -0.000001
      9.65011     10.58390     10.00000        -0.096249      0.993832     -0.000001
 -----------------------------------------------------------------------------------
    total drift:                               -0.008771      0.004485      0.000002


--------------------------------------------------------------------------------------------------------



  FREE ENERGIE OF THE ION-ELECTRON SYSTEM (eV)
  ---------------------------------------------------
  free  energy   TOTEN  =       -14.16514634 eV

  energy  without entropy=      -14.16514634  energy(sigma->0) =      -14.16514634

 d Force =-0.9165562E-02[-0.182E-01,-0.905E-04]  d Energy =-0.9128952E-02-0.366E-04
 d Force =-0.1724660E+01[-0.173E+01,-0.172E+01]  d Ewald  =-0.1725061E+01 0.401E-03


--------------------------------------------------------------------------------------------------------


    POTLOK:  cpu time      0.1632: real time      0.1645


--------------------------------------------------------------------------------------------------------


 Finite differences progress:
  Degree of freedom:   2/  9
  Displacement:        1/  2
  Total:               3/ 18
    WAVPRE:  cpu time      0.0099: real time      0.0111
    FEWALD:  cpu time      0.0004: real time      0.0004
    ORTHCH:  cpu time      0.0141: real time      0.0143
     LOOP+:  cpu time     11.6684: real time     11.7944


--------------------------------------- Ionic step        5  -------------------------------------------




--------------------------------------- Iteration      5(   1)  ---------------------------------------


    POTLOK:  cpu time      0.0632: real time      0.0645
    SETDIJ:  cpu time      0.0898: real time      0.0905
     EDDAV:  cpu time      0.1702: real time      0.1720
       DOS:  cpu time      0.0007: real time      0.0007
    CHARGE:  cpu time      0.0636: real time      0.0648
    MIXING:  cpu time      0.0031: real time      0.0031
    --------------------------------------------
      LOOP:  cpu time      0.3906: real time      0.3957

 eigenvalue-minimisations  :    64
 total energy-change (2. order) :-0.3459137E-02  (-0.6487980E-01)
 number of electron       8.0000001 magnetization 
 augmentation part        0.6745832 magnetization 

 Broyden mixing:
  rms(total) = 0.46828E-01    rms(broyden)= 0.46772E-01
  rms(prec ) = 0.49296E-01
  weight for this iteration     100.00

 Free energy of the ion-electron system (eV)
  ---------------------------------------------------
  alpha Z        PSCENC =         0.02803141
  Ewald energy   TEWEN  =       119.73227140
  -Hartree energ DENC   =      -514.83819677
  -exchange      EXHF   =         0.00000000
  -V(xc)+E(xc)   XCENC  =        33.59509724
  PAW double counting   =       568.27357142     -570.02851944
  entropy T*S    EENTRO =        -0.00000000
  eigenvalues    EBANDS =      -108.19945201
  atomic energy  EATOM  =       457.26981990
  Solvation  Ediel_sol  =         0.00000000
  ---------------------------------------------------
  free energy    TOTEN  =       -14.16737685 eV

  energy without entropy =      -14.16737685  energy(sigma->0) =      -14.16737685


--------------------------------------------------------------------------------------------------------




--------------------------------------- Iteration      5(   2)  ---------------------------------------


    POTLOK:  cpu time      0.0643: real time      0.0648
    SETDIJ:  cpu time      0.0898: real time      0.0906
     EDDAV:  cpu time      0.5726: real time      0.5771
       DOS:  cpu time      0.0010: real time      0.0010
    CHARGE:  cpu time      0.0643: real time      0.0656
    MIXING:  cpu time      0.0021: real time      0.0021
    --------------------------------------------
      LOOP:  cpu time      0.7940: real time      0.8012

 eigenvalue-minimisations  :   128
 total energy-change (2. order) : 0.2827374E-02  (-0.2102762E-02)
 number of electron       8.0000001 magnetization 
 augmentation part        0.6792785 magnetization 

 Broyden mixing:
  rms(total) = 0.22903E-01    rms(broyden)= 0.22862E-01
  rms(prec ) = 0.23516E-01
  weight for this iteration     100.00

 eigenvalues of (default mixing * dielectric matrix)
  average eigenvalue GAMMA=   1.2794
  1.2794

 Free energy of the ion-electron system (eV)
  ---------------------------------------------------
  alpha Z        PSCENC =         0.02803141
  Ewald energy   TEWEN  =       119.73227140
  -Hartree energ DENC   =      -513.94072872
  -exchange      EXHF   =         0.00000000
  -V(xc)+E(xc)   XCENC  =        33.54684713
  PAW double counting   =       561.99777244     -563.73761439
  entropy T*S    EENTRO =        -0.00000000
  eigenvalues    EBANDS =      -109.06094864
  atomic energy  EATOM  =       457.26981990
  Solvation  Ediel_sol  =         0.00000000
  ---------------------------------------------------
  free energy    TOTEN  =       -14.16454947 eV

  energy without entropy =      -14.16454947  energy(sigma->0) =      -14.16454947


--------------------------------------------------------------------------------------------------------




--------------------------------------- Iteration      5(   3)  ---------------------------------------


    POTLOK:  cpu time      0.0634: real time      0.0646
    SETDIJ:  cpu time      0.0937: real time      0.0943
     EDDAV:  cpu time      0.2355: real time      0.2379
       DOS:  cpu time      0.0007: real time      0.0007
    CHARGE:  cpu time      0.0643: real time      0.0655
    MIXING:  cpu time      0.0021: real time      0.0027
    --------------------------------------------
      LOOP:  cpu time      0.4596: real time      0.4656

 eigenvalue-minimisations  :    96
 total energy-change (2. order) : 0.2691703E-03  (-0.4656656E-04)
 number of electron       8.0000001 magnetization 
 augmentation part        0.6795338 magnetization 

 Broyden mixing:
  rms(total) = 0.10896E-01    rms(broyden)= 0.10891E-01
  rms(prec ) = 0.11188E-01
  weight for this iteration     100.00

 eigenvalues of (default mixing * dielectric matrix)
  average eigenvalue GAMMA=   1.6890
  1.0521  2.3259

 Free energy of the ion-electron system (eV)
  ---------------------------------------------------
  alpha Z        PSCENC =         0.02803141
  Ewald energy   TEWEN  =       119.73227140
  -Hartree energ DENC   =      -513.85807814
  -exchange      EXHF   =         0.00000000
  -V(xc)+E(xc)   XCENC  =        33.54314231
  PAW double counting   =       558.68780365     -560.42417907
  entropy T*S    EENTRO =        -0.00000000
  eigenvalues    EBANDS =      -109.14309176
  atomic energy  EATOM  =       457.26981990
  Solvation  Ediel_sol  =         0.00000000
  ---------------------------------------------------
  free energy    TOTEN  =       -14.16428030 eV

  energy without entropy =      -14.16428030  energy(sigma->0) =      -14.16428030


--------------------------------------------------------------------------------------------------------




--------------------------------------- Iteration      5(   4)  ---------------------------------------


    POTLOK:  cpu time      0.0640: real time      0.0646
    SETDIJ:  cpu time      0.0900: real time      0.0907
     EDDAV:  cpu time      0.3196: real time      0.3231
       DOS:  cpu time      0.0008: real time      0.0008
    CHARGE:  cpu time      0.0634: real time      0.0647
    MIXING:  cpu time      0.0032: real time      0.0032
    --------------------------------------------
      LOOP:  cpu time      0.5411: real time      0.5471

 eigenvalue-minimisations  :   128
 total energy-change (2. order) :-0.9214231E-04  (-0.2726585E-04)
 number of electron       8.0000001 magnetization 
 augmentation part        0.6794505 magnetization 

 Broyden mixing:
  rms(total) = 0.11793E-02    rms(broyden)= 0.11787E-02
  rms(prec ) = 0.12997E-02
  weight for this iteration     100.00

 eigenvalues of (default mixing * dielectric matrix)
  average eigenvalue GAMMA=   1.7685
  1.0581  2.5001  1.7472

 Free energy of the ion-electron system (eV)
  ---------------------------------------------------
  alpha Z        PSCENC =         0.02803141
  Ewald energy   TEWEN  =       119.73227140
  -Hartree energ DENC   =      -513.84797658
  -exchange      EXHF   =         0.00000000
  -V(xc)+E(xc)   XCENC  =        33.54328903
  PAW double counting   =       555.80462090     -557.53852259
  entropy T*S    EENTRO =        -0.00000000
  eigenvalues    EBANDS =      -109.15590592
  atomic energy  EATOM  =       457.26981990
  Solvation  Ediel_sol  =         0.00000000
  ---------------------------------------------------
  free energy    TOTEN  =       -14.16437245 eV

  energy without entropy =      -14.16437245  energy(sigma->0) =      -14.16437245


--------------------------------------------------------------------------------------------------------




--------------------------------------- Iteration      5(   5)  ---------------------------------------


    POTLOK:  cpu time      0.0643: real time      0.0649
    SETDIJ:  cpu time      0.0899: real time      0.0906
     EDDAV:  cpu time      0.2367: real time      0.2391
       DOS:  cpu time      0.0008: real time      0.0013
    CHARGE:  cpu time      0.0640: real time      0.0647
    MIXING:  cpu time      0.0047: real time      0.0047
    --------------------------------------------
      LOOP:  cpu time      0.4604: real time      0.4653

 eigenvalue-minimisations  :    96
 total energy-change (2. order) :-0.2940680E-04  (-0.2670012E-05)
 number of electron       8.0000001 magnetization 
 augmentation part        0.6795231 magnetization 

 Broyden mixing:
  rms(total) = 0.42161E-03    rms(broyden)= 0.41942E-03
  rms(prec ) = 0.49155E-03
  weight for this iteration     100.00

 eigenvalues of (default mixing * dielectric matrix)
  average eigenvalue GAMMA=   1.6286
  0.9604  1.0738  2.4098  2.0704

 Free energy of the ion-electron system (eV)
  ---------------------------------------------------
  alpha Z        PSCENC =         0.02803141
  Ewald energy   TEWEN  =       119.73227140
  -Hartree energ DENC   =      -513.85142743
  -exchange      EXHF   =         0.00000000
  -V(xc)+E(xc)   XCENC  =        33.54346992
  PAW double counting   =       555.48930865     -557.22280710
  entropy T*S    EENTRO =        -0.00000000
  eigenvalues    EBANDS =      -109.15306861
  atomic energy  EATOM  =       457.26981990
  Solvation  Ediel_sol  =         0.00000000
  ---------------------------------------------------
  free energy    TOTEN  =       -14.16440185 eV

  energy without entropy =      -14.16440185  energy(sigma->0) =      -14.16440185


--------------------------------------------------------------------------------------------------------




--------------------------------------- Iteration      5(   6)  ---------------------------------------


    POTLOK:  cpu time      0.0640: real time      0.0653
    SETDIJ:  cpu time      0.0899: real time      0.0905
     EDDAV:  cpu time      0.2369: real time      0.2393
       DOS:  cpu time      0.0007: real time      0.0007
    CHARGE:  cpu time      0.0647: real time      0.0660
    MIXING:  cpu time      0.0022: real time      0.0022
    --------------------------------------------
      LOOP:  cpu time      0.4584: real time      0.4641

 eigenvalue-minimisations  :    96
 total energy-change (2. order) :-0.1565734E-04  (-0.1260685E-06)
 number of electron       8.0000001 magnetization 
 augmentation part        0.6795202 magnetization 

 Broyden mixing:
  rms(total) = 0.20726E-03    rms(broyden)= 0.20701E-03
  rms(prec ) = 0.28650E-03
  weight for this iteration     100.00

 eigenvalues of (default mixing * dielectric matrix)
  average eigenvalue GAMMA=   1.7509
  2.6636  0.9537  1.0482  2.0445  2.0445

 Free energy of the ion-electron system (eV)
  ---------------------------------------------------
  alpha Z        PSCENC =         0.02803141
  Ewald energy   TEWEN  =       119.73227140
  -Hartree energ DENC   =      -513.85401881
  -exchange      EXHF   =         0.00000000
  -V(xc)+E(xc)   XCENC  =        33.54356510
  PAW double counting   =       555.51014975     -557.24385920
  entropy T*S    EENTRO =        -0.00000000
  eigenvalues    EBANDS =      -109.15037706
  atomic energy  EATOM  =       457.26981990
  Solvation  Ediel_sol  =         0.00000000
  ---------------------------------------------------
  free energy    TOTEN  =       -14.16441751 eV

  energy without entropy =      -14.16441751  energy(sigma->0) =      -14.16441751


--------------------------------------------------------------------------------------------------------




--------------------------------------- Iteration      5(   7)  ---------------------------------------


    POTLOK:  cpu time      0.0631: real time      0.0636
    SETDIJ:  cpu time      0.0903: real time      0.0910
     EDDAV:  cpu time      0.2366: real time      0.2390
       DOS:  cpu time      0.0007: real time      0.0007
    CHARGE:  cpu time      0.0643: real time      0.0656
    MIXING:  cpu time      0.0023: real time      0.0023
    --------------------------------------------
      LOOP:  cpu time      0.4573: real time      0.4622

 eigenvalue-minimisations  :    96
 total energy-change (2. order) :-0.2156018E-04  (-0.1442196E-06)
 number of electron       8.0000001 magnetization 
 augmentation part        0.6795120 magnetization 

 Broyden mixing:
  rms(total) = 0.70396E-04    rms(broyden)= 0.70234E-04
  rms(prec ) = 0.14210E-03
  weight for this iteration     100.00

 eigenvalues of (default mixing * dielectric matrix)
  average eigenvalue GAMMA=   1.7507
  2.9104  2.3920  0.9673  1.0592  1.5875  1.5875

 Free energy of the ion-electron system (eV)
  ---------------------------------------------------
  alpha Z        PSCENC =         0.02803141
  Ewald energy   TEWEN  =       119.73227140
  -Hartree energ DENC   =      -513.85572144
  -exchange      EXHF   =         0.00000000
  -V(xc)+E(xc)   XCENC  =        33.54361161
  PAW double counting   =       555.49765514     -557.23159026
  entropy T*S    EENTRO =        -0.00000000
  eigenvalues    EBANDS =      -109.14851684
  atomic energy  EATOM  =       457.26981990
  Solvation  Ediel_sol  =         0.00000000
  ---------------------------------------------------
  free energy    TOTEN  =       -14.16443907 eV

  energy without entropy =      -14.16443907  energy(sigma->0) =      -14.16443907


--------------------------------------------------------------------------------------------------------




--------------------------------------- Iteration      5(   8)  ---------------------------------------


    POTLOK:  cpu time      0.0640: real time      0.0646
    SETDIJ:  cpu time      0.0903: real time      0.0909
     EDDAV:  cpu time      0.1717: real time      0.1736
       DOS:  cpu time      0.0007: real time      0.0008
    CHARGE:  cpu time      0.1150: real time      0.1164
    MIXING:  cpu time      0.0173: real time      0.0174
    --------------------------------------------
      LOOP:  cpu time      0.4590: real time      0.4636

 eigenvalue-minimisations  :    64
 total energy-change (2. order) :-0.1692233E-04  (-0.8271075E-07)
 number of electron       8.0000001 magnetization 
 augmentation part        0.6795182 magnetization 

 Broyden mixing:
  rms(total) = 0.56526E-04    rms(broyden)= 0.56394E-04
  rms(prec ) = 0.96683E-04
  weight for this iteration     100.00

 eigenvalues of (default mixing * dielectric matrix)
  average eigenvalue GAMMA=   1.9537
  3.9717  2.6254  2.0196  2.0196  0.9461  1.0469  1.0469

 Free energy of the ion-electron system (eV)
  ---------------------------------------------------
  alpha Z        PSCENC =         0.02803141
  Ewald energy   TEWEN  =       119.73227140
  -Hartree energ DENC   =      -513.85599533
  -exchange      EXHF   =         0.00000000
  -V(xc)+E(xc)   XCENC  =        33.54358710
  PAW double counting   =       555.50320725     -557.23714884
  entropy T*S    EENTRO =        -0.00000000
  eigenvalues    EBANDS =      -109.14822887
  atomic energy  EATOM  =       457.26981990
  Solvation  Ediel_sol  =         0.00000000
  ---------------------------------------------------
  free energy    TOTEN  =       -14.16445599 eV

  energy without entropy =      -14.16445599  energy(sigma->0) =      -14.16445599


--------------------------------------------------------------------------------------------------------




--------------------------------------- Iteration      5(   9)  ---------------------------------------


    POTLOK:  cpu time      0.0703: real time      0.0716
    SETDIJ:  cpu time      0.0901: real time      0.0907
     EDDAV:  cpu time      0.1777: real time      0.1795
       DOS:  cpu time      0.0008: real time      0.0008
    CHARGE:  cpu time      0.0637: real time      0.0650
    MIXING:  cpu time      0.0030: real time      0.0030
    --------------------------------------------
      LOOP:  cpu time      0.4055: real time      0.4106

 eigenvalue-minimisations  :    64
 total energy-change (2. order) :-0.1515000E-04  (-0.1020080E-06)
 number of electron       8.0000001 magnetization 
 augmentation part        0.6795113 magnetization 

 Broyden mixing:
  rms(total) = 0.23795E-04    rms(broyden)= 0.23459E-04
  rms(prec ) = 0.43800E-04
  weight for this iteration     100.00

 eigenvalues of (default mixing * dielectric matrix)
  average eigenvalue GAMMA=   2.0334
  5.0575  2.6818  2.3884  1.7958  0.9669  1.0014  1.0014  1.3741

 Free energy of the ion-electron system (eV)
  ---------------------------------------------------
  alpha Z        PSCENC =         0.02803141
  Ewald energy   TEWEN  =       119.73227140
  -Hartree energ DENC   =      -513.85720619
  -exchange      EXHF   =         0.00000000
  -V(xc)+E(xc)   XCENC  =        33.54362369
  PAW double counting   =       555.50632617     -557.24025113
  entropy T*S    EENTRO =        -0.00000000
  eigenvalues    EBANDS =      -109.14708639
  atomic energy  EATOM  =       457.26981990
  Solvation  Ediel_sol  =         0.00000000
  ---------------------------------------------------
  free energy    TOTEN  =       -14.16447114 eV

  energy without entropy =      -14.16447114  energy(sigma->0) =      -14.16447114


--------------------------------------------------------------------------------------------------------




--------------------------------------- Iteration      5(  10)  ---------------------------------------


    POTLOK:  cpu time      0.0640: real time      0.0645
    SETDIJ:  cpu time      0.0901: real time      0.0907
     EDDAV:  cpu time      0.3220: real time      0.3253
       DOS:  cpu time      0.0007: real time      0.0008
    CHARGE:  cpu time      0.0638: real time      0.0651
    MIXING:  cpu time      0.0024: real time      0.0024
    --------------------------------------------
      LOOP:  cpu time      0.5430: real time      0.5489

 eigenvalue-minimisations  :   128
 total energy-change (2. order) :-0.5828954E-05  (-0.1456868E-07)
 number of electron       8.0000001 magnetization 
 augmentation part        0.6795135 magnetization 

 Broyden mixing:
  rms(total) = 0.20056E-04    rms(broyden)= 0.19700E-04
  rms(prec ) = 0.29775E-04
  weight for this iteration     100.00

 eigenvalues of (default mixing * dielectric matrix)
  average eigenvalue GAMMA=   2.2552
  6.5452  3.0091  2.6128  2.1768  1.9198  1.0769  0.9800  0.9881  0.9881

 Free energy of the ion-electron system (eV)
  ---------------------------------------------------
  alpha Z        PSCENC =         0.02803141
  Ewald energy   TEWEN  =       119.73227140
  -Hartree energ DENC   =      -513.85661910
  -exchange      EXHF   =         0.00000000
  -V(xc)+E(xc)   XCENC  =        33.54358951
  PAW double counting   =       555.50047747     -557.23437569
  entropy T*S    EENTRO =        -0.00000000
  eigenvalues    EBANDS =      -109.14767186
  atomic energy  EATOM  =       457.26981990
  Solvation  Ediel_sol  =         0.00000000
  ---------------------------------------------------
  free energy    TOTEN  =       -14.16447697 eV

  energy without entropy =      -14.16447697  energy(sigma->0) =      -14.16447697


--------------------------------------------------------------------------------------------------------




--------------------------------------- Iteration      5(  11)  ---------------------------------------


    POTLOK:  cpu time      0.0641: real time      0.0646
    SETDIJ:  cpu time      0.0898: real time      0.0905
     EDDAV:  cpu time      0.2375: real time      0.2398
       DOS:  cpu time      0.0008: real time      0.0008
    CHARGE:  cpu time      0.0639: real time      0.0651
    MIXING:  cpu time      0.0029: real time      0.0029
    --------------------------------------------
      LOOP:  cpu time      0.4590: real time      0.4637

 eigenvalue-minimisations  :    96
 total energy-change (2. order) :-0.4371594E-05  (-0.9179981E-08)
 number of electron       8.0000001 magnetization 
 augmentation part        0.6795137 magnetization 

 Broyden mixing:
  rms(total) = 0.77597E-05    rms(broyden)= 0.68204E-05
  rms(prec ) = 0.12020E-04
  weight for this iteration     100.00
  WARNING: grid for Broyden might be to small

 eigenvalues of (default mixing * dielectric matrix)
  average eigenvalue GAMMA=   2.2953
  6.9505  3.6325  2.6141  2.2974  1.7377  1.7377  0.9906  0.9906  1.0464  0.9554

 Free energy of the ion-electron system (eV)
  ---------------------------------------------------
  alpha Z        PSCENC =         0.02803141
  Ewald energy   TEWEN  =       119.73227140
  -Hartree energ DENC   =      -513.85636457
  -exchange      EXHF   =         0.00000000
  -V(xc)+E(xc)   XCENC  =        33.54357951
  PAW double counting   =       555.50048412     -557.23439313
  entropy T*S    EENTRO =        -0.00000000
  eigenvalues    EBANDS =      -109.14790997
  atomic energy  EATOM  =       457.26981990
  Solvation  Ediel_sol  =         0.00000000
  ---------------------------------------------------
  free energy    TOTEN  =       -14.16448134 eV

  energy without entropy =      -14.16448134  energy(sigma->0) =      -14.16448134


--------------------------------------------------------------------------------------------------------




--------------------------------------- Iteration      5(  12)  ---------------------------------------


    POTLOK:  cpu time      0.0660: real time      0.0666
    SETDIJ:  cpu time      0.0899: real time      0.0905
     EDDAV:  cpu time      0.3376: real time      0.3409
       DOS:  cpu time      0.0388: real time      0.0390
    CHARGE:  cpu time      0.0641: real time      0.0653
    MIXING:  cpu time      0.0042: real time      0.0042
    --------------------------------------------
      LOOP:  cpu time      0.6006: real time      0.6065

 eigenvalue-minimisations  :   128
 total energy-change (2. order) :-0.1356182E-05  (-0.1347431E-08)
 number of electron       8.0000001 magnetization 
 augmentation part        0.6795130 magnetization 

 Broyden mixing:
  rms(total) = 0.62334E-05    rms(broyden)= 0.50348E-05
  rms(prec ) = 0.77321E-05
  weight for this iteration     100.00
  WARNING: grid for Broyden might be to small

 eigenvalues of (default mixing * dielectric matrix)
  average eigenvalue GAMMA=   2.3960
  7.7882  4.1753  2.6848  2.4258  2.2733  1.8863  1.1146  0.9544  1.0012  1.0259
  1.0259

 Free energy of the ion-electron system (eV)
  ---------------------------------------------------
  alpha Z        PSCENC =         0.02803141
  Ewald energy   TEWEN  =       119.73227140
  -Hartree energ DENC   =      -513.85632649
  -exchange      EXHF   =         0.00000000
  -V(xc)+E(xc)   XCENC  =        33.54357940
  PAW double counting   =       555.50160320     -557.23551658
  entropy T*S    EENTRO =        -0.00000000
  eigenvalues    EBANDS =      -109.14794494
  atomic energy  EATOM  =       457.26981990
  Solvation  Ediel_sol  =         0.00000000
  ---------------------------------------------------
  free energy    TOTEN  =       -14.16448270 eV

  energy without entropy =      -14.16448270  energy(sigma->0) =      -14.16448270


--------------------------------------------------------------------------------------------------------




--------------------------------------- Iteration      5(  13)  ---------------------------------------


    POTLOK:  cpu time      0.0645: real time      0.0655
    SETDIJ:  cpu time      0.0898: real time      0.0904
     EDDAV:  cpu time      0.3175: real time      0.3206
       DOS:  cpu time      0.0007: real time      0.0008
    CHARGE:  cpu time      0.0637: real time      0.0649
    MIXING:  cpu time      0.0040: real time      0.0041
    --------------------------------------------
      LOOP:  cpu time      0.5402: real time      0.5462

 eigenvalue-minimisations  :   128
 total energy-change (2. order) :-0.7934890E-06  (-0.6591510E-09)
 number of electron       8.0000001 magnetization 
 augmentation part        0.6795136 magnetization 

 Broyden mixing:
  rms(total) = 0.48278E-05    rms(broyden)= 0.31312E-05
  rms(prec ) = 0.44520E-05
  weight for this iteration     100.00
  WARNING: grid for Broyden might be to small

 eigenvalues of (default mixing * dielectric matrix)
  average eigenvalue GAMMA=   2.4234
  8.2788  4.5906  2.8634  2.4369  2.1237  1.8878  1.8878  1.0039  1.0039  1.0751
  0.9647  0.9647

 Free energy of the ion-electron system (eV)
  ---------------------------------------------------
  alpha Z        PSCENC =         0.02803141
  Ewald energy   TEWEN  =       119.73227140
  -Hartree energ DENC   =      -513.85619390
  -exchange      EXHF   =         0.00000000
  -V(xc)+E(xc)   XCENC  =        33.54357241
  PAW double counting   =       555.50182110     -557.23573365
  entropy T*S    EENTRO =        -0.00000000
  eigenvalues    EBANDS =      -109.14807216
  atomic energy  EATOM  =       457.26981990
  Solvation  Ediel_sol  =         0.00000000
  ---------------------------------------------------
  free energy    TOTEN  =       -14.16448349 eV

  energy without entropy =      -14.16448349  energy(sigma->0) =      -14.16448349


--------------------------------------------------------------------------------------------------------




--------------------------------------- Iteration      5(  14)  ---------------------------------------


    POTLOK:  cpu time      0.0644: real time      0.0650
    SETDIJ:  cpu time      0.0898: real time      0.0904
     EDDAV:  cpu time      0.3201: real time      0.3235
       DOS:  cpu time      0.0008: real time      0.0008
    CHARGE:  cpu time      0.0638: real time      0.0651
    MIXING:  cpu time      0.0047: real time      0.0048
    --------------------------------------------
      LOOP:  cpu time      0.5437: real time      0.5495

 eigenvalue-minimisations  :   128
 total energy-change (2. order) :-0.3434781E-06  (-0.1835740E-09)
 number of electron       8.0000001 magnetization 
 augmentation part        0.6795132 magnetization 

 Broyden mixing:
  rms(total) = 0.39889E-05    rms(broyden)= 0.15541E-05
  rms(prec ) = 0.23632E-05
  weight for this iteration     100.00
  WARNING: grid for Broyden might be to small

 eigenvalues of (default mixing * dielectric matrix)
  average eigenvalue GAMMA=   2.4939
  8.7858  5.2365  3.4299  2.6310  2.3122  1.8893  1.8325  1.2841  1.0977  0.9861
  0.9861  0.9745  0.9745

 Free energy of the ion-electron system (eV)
  ---------------------------------------------------
  alpha Z        PSCENC =         0.02803141
  Ewald energy   TEWEN  =       119.73227140
  -Hartree energ DENC   =      -513.85627555
  -exchange      EXHF   =         0.00000000
  -V(xc)+E(xc)   XCENC  =        33.54357661
  PAW double counting   =       555.50180112     -557.23571379
  entropy T*S    EENTRO =        -0.00000000
  eigenvalues    EBANDS =      -109.14799493
  atomic energy  EATOM  =       457.26981990
  Solvation  Ediel_sol  =         0.00000000
  ---------------------------------------------------
  free energy    TOTEN  =       -14.16448384 eV

  energy without entropy =      -14.16448384  energy(sigma->0) =      -14.16448384


--------------------------------------------------------------------------------------------------------




--------------------------------------- Iteration      5(  15)  ---------------------------------------


    POTLOK:  cpu time      0.0656: real time      0.0662
    SETDIJ:  cpu time      0.0901: real time      0.0908
     EDDAV:  cpu time      0.3149: real time      0.3180
       DOS:  cpu time      0.0007: real time      0.0007
    CHARGE:  cpu time      0.0641: real time      0.0653
    MIXING:  cpu time      0.0043: real time      0.0044
    --------------------------------------------
      LOOP:  cpu time      0.5398: real time      0.5453

 eigenvalue-minimisations  :   128
 total energy-change (2. order) :-0.1928817E-06  (-0.7664269E-10)
 number of electron       8.0000001 magnetization 
 augmentation part        0.6795134 magnetization 

 Broyden mixing:
  rms(total) = 0.37837E-05    rms(broyden)= 0.90809E-06
  rms(prec ) = 0.13121E-05
  weight for this iteration     100.00
  WARNING: grid for Broyden might be to small

 eigenvalues of (default mixing * dielectric matrix)
  average eigenvalue GAMMA=   2.5410
  9.0035  5.6743  3.6934  2.6678  2.4420  2.3443  1.8516  1.8516  1.0554  1.0554
  0.9666  1.0118  0.9785  0.9785

 Free energy of the ion-electron system (eV)
  ---------------------------------------------------
  alpha Z        PSCENC =         0.02803141
  Ewald energy   TEWEN  =       119.73227140
  -Hartree energ DENC   =      -513.85625674
  -exchange      EXHF   =         0.00000000
  -V(xc)+E(xc)   XCENC  =        33.54357519
  PAW double counting   =       555.50172202     -557.23563303
  entropy T*S    EENTRO =        -0.00000000
  eigenvalues    EBANDS =      -109.14801418
  atomic energy  EATOM  =       457.26981990
  Solvation  Ediel_sol  =         0.00000000
  ---------------------------------------------------
  free energy    TOTEN  =       -14.16448403 eV

  energy without entropy =      -14.16448403  energy(sigma->0) =      -14.16448403


--------------------------------------------------------------------------------------------------------




--------------------------------------- Iteration      5(  16)  ---------------------------------------


    POTLOK:  cpu time      0.0653: real time      0.0663
    SETDIJ:  cpu time      0.0897: real time      0.0903
     EDDAV:  cpu time      0.3137: real time      0.3172
       DOS:  cpu time      0.0008: real time      0.0008
    CHARGE:  cpu time      0.0639: real time      0.0651
    MIXING:  cpu time      0.0031: real time      0.0031
    --------------------------------------------
      LOOP:  cpu time      0.5365: real time      0.5427

 eigenvalue-minimisations  :   128
 total energy-change (2. order) :-0.1292018E-06  (-0.3213074E-10)
 number of electron       8.0000001 magnetization 
 augmentation part        0.6795133 magnetization 

 Broyden mixing:
  rms(total) = 0.36984E-05    rms(broyden)= 0.43262E-06
  rms(prec ) = 0.59722E-06
  weight for this iteration     100.00
  WARNING: grid for Broyden might be to small

 eigenvalues of (default mixing * dielectric matrix)
  average eigenvalue GAMMA=   2.6088
  9.3543  6.4429  4.3153  3.0732  2.5928  2.2667  1.9364  1.7990  1.3907  1.0768
  0.9868  0.9868  0.9707  0.9707  0.9687

 Free energy of the ion-electron system (eV)
  ---------------------------------------------------
  alpha Z        PSCENC =         0.02803141
  Ewald energy   TEWEN  =       119.73227140
  -Hartree energ DENC   =      -513.85627342
  -exchange      EXHF   =         0.00000000
  -V(xc)+E(xc)   XCENC  =        33.54357600
  PAW double counting   =       555.50167455     -557.23558667
  entropy T*S    EENTRO =        -0.00000000
  eigenvalues    EBANDS =      -109.14799733
  atomic energy  EATOM  =       457.26981990
  Solvation  Ediel_sol  =         0.00000000
  ---------------------------------------------------
  free energy    TOTEN  =       -14.16448416 eV

  energy without entropy =      -14.16448416  energy(sigma->0) =      -14.16448416


--------------------------------------------------------------------------------------------------------




--------------------------------------- Iteration      5(  17)  ---------------------------------------


    POTLOK:  cpu time      0.0673: real time      0.0678
    SETDIJ:  cpu time      0.0908: real time      0.0915
     EDDAV:  cpu time      0.1695: real time      0.1715
       DOS:  cpu time      0.0009: real time      0.0009
    CHARGE:  cpu time      0.0637: real time      0.0650
    MIXING:  cpu time      0.0033: real time      0.0034
    --------------------------------------------
      LOOP:  cpu time      0.3955: real time      0.4000

 eigenvalue-minimisations  :    64
 total energy-change (2. order) :-0.3396622E-07  (-0.1402789E-10)
 number of electron       8.0000001 magnetization 
 augmentation part        0.6795134 magnetization 

 Broyden mixing:
  rms(total) = 0.36796E-05    rms(broyden)= 0.22081E-06
  rms(prec ) = 0.31017E-06
  weight for this iteration     100.00
  WARNING: grid for Broyden might be to small

 eigenvalues of (default mixing * dielectric matrix)
  average eigenvalue GAMMA=   2.7224
  9.6490  7.0259  4.8013  3.5648  2.7947  2.5627  2.2655  1.9598  1.8117  1.1258
  0.9801  0.9801  1.0830  0.9669  0.9669  1.0195

 Free energy of the ion-electron system (eV)
  ---------------------------------------------------
  alpha Z        PSCENC =         0.02803141
  Ewald energy   TEWEN  =       119.73227140
  -Hartree energ DENC   =      -513.85626928
  -exchange      EXHF   =         0.00000000
  -V(xc)+E(xc)   XCENC  =        33.54357578
  PAW double counting   =       555.50164754     -557.23555949
  entropy T*S    EENTRO =        -0.00000000
  eigenvalues    EBANDS =      -109.14800145
  atomic energy  EATOM  =       457.26981990
  Solvation  Ediel_sol  =         0.00000000
  ---------------------------------------------------
  free energy    TOTEN  =       -14.16448419 eV

  energy without entropy =      -14.16448419  energy(sigma->0) =      -14.16448419


--------------------------------------------------------------------------------------------------------




--------------------------------------- Iteration      5(  18)  ---------------------------------------


    POTLOK:  cpu time      0.0673: real time      0.0678
    SETDIJ:  cpu time      0.0898: real time      0.0903
     EDDAV:  cpu time      0.3166: real time      0.3197
       DOS:  cpu time      0.0008: real time      0.0008
    CHARGE:  cpu time      0.0636: real time      0.0649
    MIXING:  cpu time      0.0034: real time      0.0034
    --------------------------------------------
      LOOP:  cpu time      0.5414: real time      0.5469

 eigenvalue-minimisations  :   128
 total energy-change (2. order) :-0.1669275E-07  (-0.1492317E-10)
 number of electron       8.0000001 magnetization 
 augmentation part        0.6795134 magnetization 

 Broyden mixing:
  rms(total) = 0.36752E-05    rms(broyden)= 0.12692E-06
  rms(prec ) = 0.15134E-06
  weight for this iteration     100.00
  WARNING: grid for Broyden might be to small

 eigenvalues of (default mixing * dielectric matrix)
  average eigenvalue GAMMA=   2.6554
  9.6777  7.0878  4.8844  3.5401  2.8063  2.5369  2.2654  1.9505  1.7039  1.7039
  1.0719  1.0208  1.0208  0.9689  0.9689  0.9668  0.9668

 Free energy of the ion-electron system (eV)
  ---------------------------------------------------
  alpha Z        PSCENC =         0.02803141
  Ewald energy   TEWEN  =       119.73227140
  -Hartree energ DENC   =      -513.85626909
  -exchange      EXHF   =         0.00000000
  -V(xc)+E(xc)   XCENC  =        33.54357583
  PAW double counting   =       555.50168269     -557.23559445
  entropy T*S    EENTRO =        -0.00000000
  eigenvalues    EBANDS =      -109.14800190
  atomic energy  EATOM  =       457.26981990
  Solvation  Ediel_sol  =         0.00000000
  ---------------------------------------------------
  free energy    TOTEN  =       -14.16448421 eV

  energy without entropy =      -14.16448421  energy(sigma->0) =      -14.16448421


--------------------------------------------------------------------------------------------------------




--------------------------------------- Iteration      5(  19)  ---------------------------------------


    POTLOK:  cpu time      0.0695: real time      0.0701
    SETDIJ:  cpu time      0.0897: real time      0.0904
     EDDAV:  cpu time      0.1706: real time      0.1724
       DOS:  cpu time      0.0005: real time      0.0005
    --------------------------------------------
      LOOP:  cpu time      0.3303: real time      0.3333

 eigenvalue-minimisations  :    64
 total energy-change (2. order) :-0.1549893E-08  (-0.1279332E-10)
 number of electron       8.0000001 magnetization 
 augmentation part        0.6795134 magnetization 

 Free energy of the ion-electron system (eV)
  ---------------------------------------------------
  alpha Z        PSCENC =         0.02803141
  Ewald energy   TEWEN  =       119.73227140
  -Hartree energ DENC   =      -513.85626810
  -exchange      EXHF   =         0.00000000
  -V(xc)+E(xc)   XCENC  =        33.54357575
  PAW double counting   =       555.50167464     -557.23558649
  entropy T*S    EENTRO =        -0.00000000
  eigenvalues    EBANDS =      -109.14800272
  atomic energy  EATOM  =       457.26981990
  Solvation  Ediel_sol  =         0.00000000
  ---------------------------------------------------
  free energy    TOTEN  =       -14.16448421 eV

  energy without entropy =      -14.16448421  energy(sigma->0) =      -14.16448421


--------------------------------------------------------------------------------------------------------




 average (electrostatic) potential at core
  the test charge radii are     0.5201  0.7215
  (the norm of the test charge is              1.0000)
       1 -44.6137       2 -44.8278       3 -80.7414



 E-fermi :  -7.0880     XC(G=0):  -0.1050     alpha+bet : -0.0163

 val. band max:       -7.1498871922   @ k =   0.0000   0.0000   0.0000
 cond. band min:      -1.0982096429   @ k =   0.0000   0.0000   0.0000
 fundamental gap:      6.0516775493
 Fermi energy:        -7.0879782101

 k-point     1 :       0.0000    0.0000    0.0000
  band No.  band energies     occupation 
      1     -25.2235      2.00000
      2     -12.9610      2.00000
      3      -9.2396      2.00000
      4      -7.1499      2.00000
      5      -1.0982      0.00000
      6       0.0106      0.00000
      7       0.1878      0.00000
      8       0.2965      0.00000
      9       0.3116      0.00000
     10       0.3411      0.00000
     11       0.3479      0.00000
     12       0.4604      0.00000
     13       0.4918      0.00000
     14       0.6007      0.00000
     15       0.6215      0.00000
     16       0.7074      0.00000
     17       0.7080      0.00000
     18       0.7132      0.00000
     19       0.7175      0.00000
     20       0.7216      0.00000
     21       0.7296      0.00000
     22       0.7309      0.00000
     23       0.7372      0.00000
     24       0.9298      0.00000
     25       0.9375      0.00000
     26       1.0196      0.00000
     27       1.0338      0.00000
     28       1.0809      0.00000
     29       1.0851      0.00000
     30       1.0875      0.00000
     31       1.1044      0.00000
     32       1.2453      0.00000


--------------------------------------------------------------------------------------------------------


 soft charge-density along one line, spin component           1
         0         1         2         3         4         5         6         7         8         9
 total charge-density along one line

 pseudopotential strength for first ion, spin component:           1
 -2.378  -4.107  -0.022   0.000   0.002
 -4.107  -7.006  -0.040   0.000   0.004
 -0.022  -0.040  -0.286  -0.000  -0.004
  0.000   0.000  -0.000  -0.328  -0.000
  0.002   0.004  -0.004  -0.000  -0.327
 total augmentation occupancy for first ion, spin component:           1
  3.859  -0.845   0.656  -0.000  -0.093
 -0.845   0.228  -0.143   0.000   0.025
  0.656  -0.143   0.112  -0.000  -0.015
 -0.000   0.000  -0.000   0.034  -0.000
 -0.093   0.025  -0.015  -0.000   0.024


------------------------ aborting loop because EDIFF is reached ----------------------------------------


    CHARGE:  cpu time      0.0643: real time      0.0651
    FORLOC:  cpu time      0.0019: real time      0.0019
    FORNL :  cpu time      0.2458: real time      0.2490
    STRESS:  cpu time      0.9244: real time      0.9353
    FORCOR:  cpu time      0.0558: real time      0.0562
    FORHAR:  cpu time      0.0280: real time      0.0294
    MIXING:  cpu time      0.0029: real time      0.0029
    OFIELD:  cpu time      0.0000: real time      0.0000

 ---------------------------------------------------------------------------------------------

         DFTD3 V3.0 Rev 1        
 Edisp (eV)   -0.00147

 E6    (eV) :    -0.0014
 E8    (eV) :    -0.0001
 % E8        :  5.25
    FORVDW:  cpu time      0.0078: real time      0.0079

  FORCE on cell =-STRESS in cart. coord.  units (eV):
  Direction    XX          YY          ZZ          XY          YZ          ZX
  --------------------------------------------------------------------------------------
  Alpha Z     0.02803     0.02803     0.02803
  Ewald      57.10661    84.44275   -21.81708    22.72252    -0.00008     0.00018
  Hartree   174.30079   179.48147   160.07401     3.85985    -0.00001     0.00003
  E(xc)     -36.23828   -36.09177   -36.69281     0.11190    -0.00000     0.00000
  Local    -316.94342  -342.26002  -247.96620   -20.14648     0.00007    -0.00016
  n-local   -30.53996   -29.87505   -30.69539     0.30311    -0.00000     0.00000
  augment     6.42156     5.92265     8.06040    -0.39513     0.00000    -0.00000
  Kinetic   145.12385   136.75365   168.17907    -6.32601     0.00002    -0.00006
  Fock        0.00000     0.00000     0.00000     0.00000     0.00000     0.00000
  vdW         0.00278     0.00883    -0.00000     0.00448     0.00000     0.00000
  -------------------------------------------------------------------------------------
  Total      -0.73803    -1.58945    -0.82997     0.13424     0.00000     0.00000
  in kB      -0.14781    -0.31832    -0.16622     0.02688     0.00000     0.00000
  external pressure =       -0.21 kB  Pullay stress =        0.00 kB


 VOLUME and BASIS-vectors are now :
 -----------------------------------------------------------------------------
  energy-cutoff  :      400.00
  volume of cell :     8000.00
      direct lattice vectors                 reciprocal lattice vectors
    20.000000000  0.000000000  0.000000000     0.050000000  0.000000000  0.000000000
     0.000000000 20.000000000  0.000000000     0.000000000  0.050000000  0.000000000
     0.000000000  0.000000000 20.000000000     0.000000000  0.000000000  0.050000000

  length of vectors
    20.000000000 20.000000000 20.000000000     0.050000000  0.050000000  0.050000000


 FORCES acting on ions
    electron-ion (+dipol)            ewald-force                    non-local-force                 convergence-correction
 -----------------------------------------------------------------------------------------------
   -.102E+02 0.850E+02 -.142E-03   0.111E+02 -.917E+02 0.154E-03   -.937E+00 0.763E+01 -.119E-04   -.504E-08 -.944E-07 0.394E-10
   -.789E+02 -.381E+02 -.164E-03   0.864E+02 0.417E+02 0.180E-03   -.745E+01 -.356E+01 -.159E-04   0.124E-06 -.733E-07 0.654E-10
   0.545E+02 -.280E+02 0.191E-03   -.975E+02 0.501E+02 -.334E-03   0.430E+02 -.229E+02 0.145E-03   -.303E-06 -.168E-05 0.183E-08
 -----------------------------------------------------------------------------------------------
   -.346E+02 0.188E+02 -.115E-03   -.142E-13 0.000E+00 0.401E-17   0.346E+02 -.188E+02 0.118E-03   -.185E-06 -.185E-05 0.193E-08


 POSITION                                       TOTAL-FORCE (eV/Angst)
 -----------------------------------------------------------------------------------
      9.80755      9.60347     10.00000        -0.097861      0.900255     -0.000001
     10.54234     10.97263     10.00000         0.027353     -0.040223     -0.000001
      9.65011     10.58390     10.00000         0.070508     -0.860032      0.000002
 -----------------------------------------------------------------------------------
    total drift:                               -0.008789      0.005417      0.000002


--------------------------------------------------------------------------------------------------------



  FREE ENERGIE OF THE ION-ELECTRON SYSTEM (eV)
  ---------------------------------------------------
  free  energy   TOTEN  =       -14.16595382 eV

  energy  without entropy=      -14.16595382  energy(sigma->0) =      -14.16595382

 d Force = 0.2690743E-02[-0.360E-01, 0.414E-01]  d Energy = 0.8074822E-03 0.188E-02
 d Force = 0.3816913E+01[ 0.367E+01, 0.397E+01]  d Ewald  = 0.3814038E+01 0.288E-02


--------------------------------------------------------------------------------------------------------


    POTLOK:  cpu time      0.1563: real time      0.1576


--------------------------------------------------------------------------------------------------------


 Finite differences progress:
  Degree of freedom:   2/  9
  Displacement:        2/  2
  Total:               4/ 18
    WAVPRE:  cpu time      0.0097: real time      0.0111
    FEWALD:  cpu time      0.0003: real time      0.0003
    ORTHCH:  cpu time      0.0143: real time      0.0145
     LOOP+:  cpu time     11.0616: real time     11.1856


--------------------------------------- Ionic step        6  -------------------------------------------




--------------------------------------- Iteration      6(   1)  ---------------------------------------


    POTLOK:  cpu time      0.0634: real time      0.0647
    SETDIJ:  cpu time      0.0897: real time      0.0904
     EDDAV:  cpu time      0.1688: real time      0.1707
       DOS:  cpu time      0.0008: real time      0.0008
    CHARGE:  cpu time      0.0634: real time      0.0650
    MIXING:  cpu time      0.0027: real time      0.0028
    --------------------------------------------
      LOOP:  cpu time      0.3889: real time      0.3943

 eigenvalue-minimisations  :    64
 total energy-change (2. order) :-0.9742252E-02  (-0.2853702E-01)
 number of electron       8.0000001 magnetization 
 augmentation part        0.6859264 magnetization 

 Broyden mixing:
  rms(total) = 0.24866E-01    rms(broyden)= 0.24806E-01
  rms(prec ) = 0.26000E-01
  weight for this iteration     100.00

 Free energy of the ion-electron system (eV)
  ---------------------------------------------------
  alpha Z        PSCENC =         0.02803141
  Ewald energy   TEWEN  =       121.58268159
  -Hartree energ DENC   =      -514.84029704
  -exchange      EXHF   =         0.00000000
  -V(xc)+E(xc)   XCENC  =        33.59182084
  PAW double counting   =       555.50167343     -557.23558532
  entropy T*S    EENTRO =        -0.00000000
  eigenvalues    EBANDS =      -110.07237127
  atomic energy  EATOM  =       457.26981990
  Solvation  Ediel_sol  =         0.00000000
  ---------------------------------------------------
  free energy    TOTEN  =       -14.17422646 eV

  energy without entropy =      -14.17422646  energy(sigma->0) =      -14.17422646


--------------------------------------------------------------------------------------------------------




--------------------------------------- Iteration      6(   2)  ---------------------------------------


    POTLOK:  cpu time      0.0648: real time      0.0658
    SETDIJ:  cpu time      0.0896: real time      0.0903
     EDDAV:  cpu time      0.1730: real time      0.1752
       DOS:  cpu time      0.0008: real time      0.0008
    CHARGE:  cpu time      0.0647: real time      0.0659
    MIXING:  cpu time      0.0029: real time      0.0029
    --------------------------------------------
      LOOP:  cpu time      0.3959: real time      0.4009

 eigenvalue-minimisations  :    64
 total energy-change (2. order) : 0.4937820E-03  (-0.5913414E-03)
 number of electron       8.0000001 magnetization 
 augmentation part        0.6839305 magnetization 

 Broyden mixing:
  rms(total) = 0.12941E-01    rms(broyden)= 0.12921E-01
  rms(prec ) = 0.13319E-01
  weight for this iteration     100.00

 eigenvalues of (default mixing * dielectric matrix)
  average eigenvalue GAMMA=   1.4161
  1.4161

 Free energy of the ion-electron system (eV)
  ---------------------------------------------------
  alpha Z        PSCENC =         0.02803141
  Ewald energy   TEWEN  =       121.58268159
  -Hartree energ DENC   =      -515.25937140
  -exchange      EXHF   =         0.00000000
  -V(xc)+E(xc)   XCENC  =        33.61410813
  PAW double counting   =       558.46666318     -560.20750439
  entropy T*S    EENTRO =        -0.00000000
  eigenvalues    EBANDS =      -109.66816111
  atomic energy  EATOM  =       457.26981990
  Solvation  Ediel_sol  =         0.00000000
  ---------------------------------------------------
  free energy    TOTEN  =       -14.17373268 eV

  energy without entropy =      -14.17373268  energy(sigma->0) =      -14.17373268


--------------------------------------------------------------------------------------------------------




--------------------------------------- Iteration      6(   3)  ---------------------------------------


    POTLOK:  cpu time      0.0648: real time      0.0655
    SETDIJ:  cpu time      0.0898: real time      0.0905
     EDDAV:  cpu time      0.3389: real time      0.3420
       DOS:  cpu time      0.0008: real time      0.0008
    CHARGE:  cpu time      0.0639: real time      0.0653
    MIXING:  cpu time      0.0033: real time      0.0033
    --------------------------------------------
      LOOP:  cpu time      0.5615: real time      0.5674

 eigenvalue-minimisations  :    96
 total energy-change (2. order) : 0.1096201E-04  (-0.2536391E-04)
 number of electron       8.0000001 magnetization 
 augmentation part        0.6835614 magnetization 

 Broyden mixing:
  rms(total) = 0.56737E-02    rms(broyden)= 0.56712E-02
  rms(prec ) = 0.58657E-02
  weight for this iteration     100.00

 eigenvalues of (default mixing * dielectric matrix)
  average eigenvalue GAMMA=   1.7105
  1.1544  2.2666

 Free energy of the ion-electron system (eV)
  ---------------------------------------------------
  alpha Z        PSCENC =         0.02803141
  Ewald energy   TEWEN  =       121.58268159
  -Hartree energ DENC   =      -515.33020497
  -exchange      EXHF   =         0.00000000
  -V(xc)+E(xc)   XCENC  =        33.61742868
  PAW double counting   =       560.27013332     -562.01307469
  entropy T*S    EENTRO =        -0.00000000
  eigenvalues    EBANDS =      -109.59853696
  atomic energy  EATOM  =       457.26981990
  Solvation  Ediel_sol  =         0.00000000
  ---------------------------------------------------
  free energy    TOTEN  =       -14.17372172 eV

  energy without entropy =      -14.17372172  energy(sigma->0) =      -14.17372172


--------------------------------------------------------------------------------------------------------




--------------------------------------- Iteration      6(   4)  ---------------------------------------


    POTLOK:  cpu time      0.0649: real time      0.0655
    SETDIJ:  cpu time      0.0901: real time      0.0908
     EDDAV:  cpu time      0.3211: real time      0.3242
       DOS:  cpu time      0.0009: real time      0.0009
    CHARGE:  cpu time      0.0641: real time      0.0653
    MIXING:  cpu time      0.0032: real time      0.0032
    --------------------------------------------
      LOOP:  cpu time      0.5443: real time      0.5499

 eigenvalue-minimisations  :   128
 total energy-change (2. order) :-0.3524900E-04  (-0.1012461E-04)
 number of electron       8.0000001 magnetization 
 augmentation part        0.6838425 magnetization 

 Broyden mixing:
  rms(total) = 0.10726E-02    rms(broyden)= 0.10721E-02
  rms(prec ) = 0.11999E-02
  weight for this iteration     100.00

 eigenvalues of (default mixing * dielectric matrix)
  average eigenvalue GAMMA=   1.5260
  2.4660  1.0560  1.0560

 Free energy of the ion-electron system (eV)
  ---------------------------------------------------
  alpha Z        PSCENC =         0.02803141
  Ewald energy   TEWEN  =       121.58268159
  -Hartree energ DENC   =      -515.30137380
  -exchange      EXHF   =         0.00000000
  -V(xc)+E(xc)   XCENC  =        33.61558075
  PAW double counting   =       561.41848816     -563.16206744
  entropy T*S    EENTRO =        -0.00000000
  eigenvalues    EBANDS =      -109.62491754
  atomic energy  EATOM  =       457.26981990
  Solvation  Ediel_sol  =         0.00000000
  ---------------------------------------------------
  free energy    TOTEN  =       -14.17375697 eV

  energy without entropy =      -14.17375697  energy(sigma->0) =      -14.17375697


--------------------------------------------------------------------------------------------------------




--------------------------------------- Iteration      6(   5)  ---------------------------------------


    POTLOK:  cpu time      0.0638: real time      0.0651
    SETDIJ:  cpu time      0.0900: real time      0.0907
     EDDAV:  cpu time      0.2350: real time      0.2377
       DOS:  cpu time      0.0009: real time      0.0008
    CHARGE:  cpu time      0.0639: real time      0.0651
    MIXING:  cpu time      0.0026: real time      0.0026
    --------------------------------------------
      LOOP:  cpu time      0.4562: real time      0.4620

 eigenvalue-minimisations  :    96
 total energy-change (2. order) :-0.1529395E-04  (-0.1607848E-05)
 number of electron       8.0000001 magnetization 
 augmentation part        0.6836634 magnetization 

 Broyden mixing:
  rms(total) = 0.46435E-03    rms(broyden)= 0.46361E-03
  rms(prec ) = 0.57135E-03
  weight for this iteration     100.00

 eigenvalues of (default mixing * dielectric matrix)
  average eigenvalue GAMMA=   1.5977
  2.4911  1.9777  1.0761  0.8458

 Free energy of the ion-electron system (eV)
  ---------------------------------------------------
  alpha Z        PSCENC =         0.02803141
  Ewald energy   TEWEN  =       121.58268159
  -Hartree energ DENC   =      -515.32290950
  -exchange      EXHF   =         0.00000000
  -V(xc)+E(xc)   XCENC  =        33.61674581
  PAW double counting   =       561.61184846     -563.35591004
  entropy T*S    EENTRO =        -0.00000000
  eigenvalues    EBANDS =      -109.60407989
  atomic energy  EATOM  =       457.26981990
  Solvation  Ediel_sol  =         0.00000000
  ---------------------------------------------------
  free energy    TOTEN  =       -14.17377226 eV

  energy without entropy =      -14.17377226  energy(sigma->0) =      -14.17377226


--------------------------------------------------------------------------------------------------------




--------------------------------------- Iteration      6(   6)  ---------------------------------------


    POTLOK:  cpu time      0.0631: real time      0.0654
    SETDIJ:  cpu time      0.0896: real time      0.0903
     EDDAV:  cpu time      0.3152: real time      0.3183
       DOS:  cpu time      0.0023: real time      0.0024
    CHARGE:  cpu time      0.0638: real time      0.0650
    MIXING:  cpu time      0.0029: real time      0.0029
    --------------------------------------------
      LOOP:  cpu time      0.5369: real time      0.5442

 eigenvalue-minimisations  :   128
 total energy-change (2. order) :-0.2464631E-04  (-0.3517678E-06)
 number of electron       8.0000001 magnetization 
 augmentation part        0.6836636 magnetization 

 Broyden mixing:
  rms(total) = 0.19526E-03    rms(broyden)= 0.19494E-03
  rms(prec ) = 0.29069E-03
  weight for this iteration     100.00

 eigenvalues of (default mixing * dielectric matrix)
  average eigenvalue GAMMA=   1.5676
  2.5977  2.1592  1.0179  1.0179  1.0454

 Free energy of the ion-electron system (eV)
  ---------------------------------------------------
  alpha Z        PSCENC =         0.02803141
  Ewald energy   TEWEN  =       121.58268159
  -Hartree energ DENC   =      -515.31874502
  -exchange      EXHF   =         0.00000000
  -V(xc)+E(xc)   XCENC  =        33.61653629
  PAW double counting   =       561.61595065     -563.35987634
  entropy T*S    EENTRO =        -0.00000000
  eigenvalues    EBANDS =      -109.60819539
  atomic energy  EATOM  =       457.26981990
  Solvation  Ediel_sol  =         0.00000000
  ---------------------------------------------------
  free energy    TOTEN  =       -14.17379691 eV

  energy without entropy =      -14.17379691  energy(sigma->0) =      -14.17379691


--------------------------------------------------------------------------------------------------------




--------------------------------------- Iteration      6(   7)  ---------------------------------------


    POTLOK:  cpu time      0.0630: real time      0.0646
    SETDIJ:  cpu time      0.0903: real time      0.0909
     EDDAV:  cpu time      0.3200: real time      0.3236
       DOS:  cpu time      0.0008: real time      0.0008
    CHARGE:  cpu time      0.0637: real time      0.0648
    MIXING:  cpu time      0.0030: real time      0.0030
    --------------------------------------------
      LOOP:  cpu time      0.5408: real time      0.5478

 eigenvalue-minimisations  :   128
 total energy-change (2. order) :-0.1516202E-04  (-0.1444197E-06)
 number of electron       8.0000001 magnetization 
 augmentation part        0.6836964 magnetization 

 Broyden mixing:
  rms(total) = 0.99726E-04    rms(broyden)= 0.99428E-04
  rms(prec ) = 0.18597E-03
  weight for this iteration     100.00

 eigenvalues of (default mixing * dielectric matrix)
  average eigenvalue GAMMA=   1.7191
  2.9990  2.3836  1.9403  0.9668  0.9668  1.0580

 Free energy of the ion-electron system (eV)
  ---------------------------------------------------
  alpha Z        PSCENC =         0.02803141
  Ewald energy   TEWEN  =       121.58268159
  -Hartree energ DENC   =      -515.31358978
  -exchange      EXHF   =         0.00000000
  -V(xc)+E(xc)   XCENC  =        33.61625840
  PAW double counting   =       561.61258573     -563.35640474
  entropy T*S    EENTRO =        -0.00000000
  eigenvalues    EBANDS =      -109.61319458
  atomic energy  EATOM  =       457.26981990
  Solvation  Ediel_sol  =         0.00000000
  ---------------------------------------------------
  free energy    TOTEN  =       -14.17381207 eV

  energy without entropy =      -14.17381207  energy(sigma->0) =      -14.17381207


--------------------------------------------------------------------------------------------------------




--------------------------------------- Iteration      6(   8)  ---------------------------------------


    POTLOK:  cpu time      0.0699: real time      0.0705
    SETDIJ:  cpu time      0.0900: real time      0.0907
     EDDAV:  cpu time      0.1748: real time      0.1767
       DOS:  cpu time      0.0008: real time      0.0008
    CHARGE:  cpu time      0.0640: real time      0.0652
    MIXING:  cpu time      0.0035: real time      0.0035
    --------------------------------------------
      LOOP:  cpu time      0.4030: real time      0.4074

 eigenvalue-minimisations  :    64
 total energy-change (2. order) :-0.2245110E-04  (-0.2677371E-06)
 number of electron       8.0000001 magnetization 
 augmentation part        0.6836934 magnetization 

 Broyden mixing:
  rms(total) = 0.52662E-04    rms(broyden)= 0.52217E-04
  rms(prec ) = 0.10064E-03
  weight for this iteration     100.00

 eigenvalues of (default mixing * dielectric matrix)
  average eigenvalue GAMMA=   1.8655
  3.9044  2.5141  1.8380  1.8380  0.9738  0.9738  1.0163

 Free energy of the ion-electron system (eV)
  ---------------------------------------------------
  alpha Z        PSCENC =         0.02803141
  Ewald energy   TEWEN  =       121.58268159
  -Hartree energ DENC   =      -515.31311772
  -exchange      EXHF   =         0.00000000
  -V(xc)+E(xc)   XCENC  =        33.61623946
  PAW double counting   =       561.60960657     -563.35340568
  entropy T*S    EENTRO =        -0.00000000
  eigenvalues    EBANDS =      -109.61369006
  atomic energy  EATOM  =       457.26981990
  Solvation  Ediel_sol  =         0.00000000
  ---------------------------------------------------
  free energy    TOTEN  =       -14.17383452 eV

  energy without entropy =      -14.17383452  energy(sigma->0) =      -14.17383452


--------------------------------------------------------------------------------------------------------




--------------------------------------- Iteration      6(   9)  ---------------------------------------


    POTLOK:  cpu time      0.0659: real time      0.0665
    SETDIJ:  cpu time      0.0909: real time      0.0916
     EDDAV:  cpu time      0.1690: real time      0.1709
       DOS:  cpu time      0.0007: real time      0.0007
    CHARGE:  cpu time      0.0639: real time      0.0652
    MIXING:  cpu time      0.0041: real time      0.0042
    --------------------------------------------
      LOOP:  cpu time      0.3946: real time      0.3989

 eigenvalue-minimisations  :    64
 total energy-change (2. order) :-0.1352732E-04  (-0.1366832E-06)
 number of electron       8.0000001 magnetization 
 augmentation part        0.6836876 magnetization 

 Broyden mixing:
  rms(total) = 0.32068E-04    rms(broyden)= 0.31391E-04
  rms(prec ) = 0.55600E-04
  weight for this iteration     100.00

 eigenvalues of (default mixing * dielectric matrix)
  average eigenvalue GAMMA=   2.0570
  5.3670  2.7326  2.3573  1.9028  1.1131  1.0127  0.9851  0.9851

 Free energy of the ion-electron system (eV)
  ---------------------------------------------------
  alpha Z        PSCENC =         0.02803141
  Ewald energy   TEWEN  =       121.58268159
  -Hartree energ DENC   =      -515.31328017
  -exchange      EXHF   =         0.00000000
  -V(xc)+E(xc)   XCENC  =        33.61625188
  PAW double counting   =       561.60811534     -563.35193891
  entropy T*S    EENTRO =        -0.00000000
  eigenvalues    EBANDS =      -109.61352910
  atomic energy  EATOM  =       457.26981990
  Solvation  Ediel_sol  =         0.00000000
  ---------------------------------------------------
  free energy    TOTEN  =       -14.17384805 eV

  energy without entropy =      -14.17384805  energy(sigma->0) =      -14.17384805


--------------------------------------------------------------------------------------------------------




--------------------------------------- Iteration      6(  10)  ---------------------------------------


    POTLOK:  cpu time      0.0648: real time      0.0661
    SETDIJ:  cpu time      0.0903: real time      0.0909
     EDDAV:  cpu time      0.2371: real time      0.2398
       DOS:  cpu time      0.0007: real time      0.0007
    CHARGE:  cpu time      0.0635: real time      0.0648
    MIXING:  cpu time      0.0035: real time      0.0035
    --------------------------------------------
      LOOP:  cpu time      0.4599: real time      0.4659

 eigenvalue-minimisations  :    96
 total energy-change (2. order) :-0.6531628E-05  (-0.4283678E-07)
 number of electron       8.0000001 magnetization 
 augmentation part        0.6836915 magnetization 

 Broyden mixing:
  rms(total) = 0.18088E-04    rms(broyden)= 0.16895E-04
  rms(prec ) = 0.29754E-04
  weight for this iteration     100.00

 eigenvalues of (default mixing * dielectric matrix)
  average eigenvalue GAMMA=   2.2242
  6.3699  3.1814  2.5402  1.9637  1.9637  0.9893  0.9893  1.0099  1.0099

 Free energy of the ion-electron system (eV)
  ---------------------------------------------------
  alpha Z        PSCENC =         0.02803141
  Ewald energy   TEWEN  =       121.58268159
  -Hartree energ DENC   =      -515.31271606
  -exchange      EXHF   =         0.00000000
  -V(xc)+E(xc)   XCENC  =        33.61621928
  PAW double counting   =       561.60840487     -563.35223676
  entropy T*S    EENTRO =        -0.00000000
  eigenvalues    EBANDS =      -109.61405881
  atomic energy  EATOM  =       457.26981990
  Solvation  Ediel_sol  =         0.00000000
  ---------------------------------------------------
  free energy    TOTEN  =       -14.17385458 eV

  energy without entropy =      -14.17385458  energy(sigma->0) =      -14.17385458


--------------------------------------------------------------------------------------------------------




--------------------------------------- Iteration      6(  11)  ---------------------------------------


    POTLOK:  cpu time      0.0655: real time      0.0660
    SETDIJ:  cpu time      0.0899: real time      0.0905
     EDDAV:  cpu time      0.1700: real time      0.1718
       DOS:  cpu time      0.0008: real time      0.0008
    CHARGE:  cpu time      0.0645: real time      0.0658
    MIXING:  cpu time      0.0036: real time      0.0036
    --------------------------------------------
      LOOP:  cpu time      0.3944: real time      0.3986

 eigenvalue-minimisations  :    64
 total energy-change (2. order) :-0.3980248E-05  (-0.1391123E-07)
 number of electron       8.0000001 magnetization 
 augmentation part        0.6836908 magnetization 

 Broyden mixing:
  rms(total) = 0.95645E-05    rms(broyden)= 0.70777E-05
  rms(prec ) = 0.12916E-04
  weight for this iteration     100.00
  WARNING: grid for Broyden might be to small

 eigenvalues of (default mixing * dielectric matrix)
  average eigenvalue GAMMA=   2.2873
  7.2802  3.6829  2.6226  2.3136  1.8802  1.1472  0.9891  0.9891  0.9981  0.9697

 Free energy of the ion-electron system (eV)
  ---------------------------------------------------
  alpha Z        PSCENC =         0.02803141
  Ewald energy   TEWEN  =       121.58268159
  -Hartree energ DENC   =      -515.31292899
  -exchange      EXHF   =         0.00000000
  -V(xc)+E(xc)   XCENC  =        33.61622618
  PAW double counting   =       561.61051632     -563.35434922
  entropy T*S    EENTRO =        -0.00000000
  eigenvalues    EBANDS =      -109.61385576
  atomic energy  EATOM  =       457.26981990
  Solvation  Ediel_sol  =         0.00000000
  ---------------------------------------------------
  free energy    TOTEN  =       -14.17385856 eV

  energy without entropy =      -14.17385856  energy(sigma->0) =      -14.17385856


--------------------------------------------------------------------------------------------------------




--------------------------------------- Iteration      6(  12)  ---------------------------------------


    POTLOK:  cpu time      0.0648: real time      0.0659
    SETDIJ:  cpu time      0.0901: real time      0.0908
     EDDAV:  cpu time      0.3306: real time      1.0411
       DOS:  cpu time      0.0009: real time      0.0009
    CHARGE:  cpu time      0.0637: real time      0.0649
    MIXING:  cpu time      0.0039: real time      0.0039
    --------------------------------------------
      LOOP:  cpu time      0.5541: real time      1.2676

 eigenvalue-minimisations  :   128
 total energy-change (2. order) :-0.1099315E-05  (-0.1423476E-08)
 number of electron       8.0000001 magnetization 
 augmentation part        0.6836905 magnetization 

 Broyden mixing:
  rms(total) = 0.82340E-05    rms(broyden)= 0.51445E-05
  rms(prec ) = 0.85737E-05
  weight for this iteration     100.00
  WARNING: grid for Broyden might be to small

 eigenvalues of (default mixing * dielectric matrix)
  average eigenvalue GAMMA=   2.4098
  8.0098  4.3268  2.7240  2.2776  2.2776  1.8646  0.9932  0.9932  0.9891  0.9891
  1.0622

 Free energy of the ion-electron system (eV)
  ---------------------------------------------------
  alpha Z        PSCENC =         0.02803141
  Ewald energy   TEWEN  =       121.58268159
  -Hartree energ DENC   =      -515.31298219
  -exchange      EXHF   =         0.00000000
  -V(xc)+E(xc)   XCENC  =        33.61622731
  PAW double counting   =       561.60995765     -563.35378631
  entropy T*S    EENTRO =        -0.00000000
  eigenvalues    EBANDS =      -109.61380902
  atomic energy  EATOM  =       457.26981990
  Solvation  Ediel_sol  =         0.00000000
  ---------------------------------------------------
  free energy    TOTEN  =       -14.17385966 eV

  energy without entropy =      -14.17385966  energy(sigma->0) =      -14.17385966


--------------------------------------------------------------------------------------------------------




--------------------------------------- Iteration      6(  13)  ---------------------------------------


    POTLOK:  cpu time      0.0688: real time      0.0694
    SETDIJ:  cpu time      0.1079: real time      0.1087
     EDDAV:  cpu time      0.4220: real time      0.4256
       DOS:  cpu time      0.0008: real time      0.0008
    CHARGE:  cpu time      0.0639: real time      0.0651
    MIXING:  cpu time      0.0038: real time      0.0038
    --------------------------------------------
      LOOP:  cpu time      0.6672: real time      0.6733

 eigenvalue-minimisations  :   128
 total energy-change (2. order) :-0.9143432E-06  (-0.1053552E-08)
 number of electron       8.0000001 magnetization 
 augmentation part        0.6836907 magnetization 

 Broyden mixing:
  rms(total) = 0.67830E-05    rms(broyden)= 0.21666E-05
  rms(prec ) = 0.39181E-05
  weight for this iteration     100.00
  WARNING: grid for Broyden might be to small

 eigenvalues of (default mixing * dielectric matrix)
  average eigenvalue GAMMA=   2.4456
  8.5176  4.7532  3.0978  2.5781  2.1973  1.9314  0.9908  0.9908  1.0118  1.0118
  1.1335  1.1335

 Free energy of the ion-electron system (eV)
  ---------------------------------------------------
  alpha Z        PSCENC =         0.02803141
  Ewald energy   TEWEN  =       121.58268159
  -Hartree energ DENC   =      -515.31297723
  -exchange      EXHF   =         0.00000000
  -V(xc)+E(xc)   XCENC  =        33.61622587
  PAW double counting   =       561.60935945     -563.35318613
  entropy T*S    EENTRO =        -0.00000000
  eigenvalues    EBANDS =      -109.61381543
  atomic energy  EATOM  =       457.26981990
  Solvation  Ediel_sol  =         0.00000000
  ---------------------------------------------------
  free energy    TOTEN  =       -14.17386057 eV

  energy without entropy =      -14.17386057  energy(sigma->0) =      -14.17386057


--------------------------------------------------------------------------------------------------------




--------------------------------------- Iteration      6(  14)  ---------------------------------------


    POTLOK:  cpu time      0.0657: real time      0.0662
    SETDIJ:  cpu time      0.0901: real time      0.0908
     EDDAV:  cpu time      0.3153: real time      0.3183
       DOS:  cpu time      0.0007: real time      0.0007
    CHARGE:  cpu time      0.0641: real time      0.0653
    MIXING:  cpu time      0.0038: real time      0.0039
    --------------------------------------------
      LOOP:  cpu time      0.5397: real time      0.5452

 eigenvalue-minimisations  :   128
 total energy-change (2. order) :-0.3518679E-06  (-0.2356106E-09)
 number of electron       8.0000001 magnetization 
 augmentation part        0.6836907 magnetization 

 Broyden mixing:
  rms(total) = 0.65759E-05    rms(broyden)= 0.13908E-05
  rms(prec ) = 0.23124E-05
  weight for this iteration     100.00
  WARNING: grid for Broyden might be to small

 eigenvalues of (default mixing * dielectric matrix)
  average eigenvalue GAMMA=   2.5362
  9.0031  5.3921  3.5007  2.5999  2.3759  2.1519  1.8779  0.9922  0.9922  0.9908
  0.9908  1.0516  1.0516

 Free energy of the ion-electron system (eV)
  ---------------------------------------------------
  alpha Z        PSCENC =         0.02803141
  Ewald energy   TEWEN  =       121.58268159
  -Hartree energ DENC   =      -515.31296122
  -exchange      EXHF   =         0.00000000
  -V(xc)+E(xc)   XCENC  =        33.61622501
  PAW double counting   =       561.60913405     -563.35296097
  entropy T*S    EENTRO =        -0.00000000
  eigenvalues    EBANDS =      -109.61383069
  atomic energy  EATOM  =       457.26981990
  Solvation  Ediel_sol  =         0.00000000
  ---------------------------------------------------
  free energy    TOTEN  =       -14.17386092 eV

  energy without entropy =      -14.17386092  energy(sigma->0) =      -14.17386092


--------------------------------------------------------------------------------------------------------




--------------------------------------- Iteration      6(  15)  ---------------------------------------


    POTLOK:  cpu time      0.0696: real time      0.0701
    SETDIJ:  cpu time      0.0900: real time      0.0907
     EDDAV:  cpu time      0.3150: real time      0.3185
       DOS:  cpu time      0.0008: real time      0.0008
    CHARGE:  cpu time      0.0634: real time      0.0646
    MIXING:  cpu time      0.0041: real time      0.0041
    --------------------------------------------
      LOOP:  cpu time      0.5429: real time      0.5489

 eigenvalue-minimisations  :   128
 total energy-change (2. order) :-0.2216647E-06  (-0.7656276E-10)
 number of electron       8.0000001 magnetization 
 augmentation part        0.6836907 magnetization 

 Broyden mixing:
  rms(total) = 0.64631E-05    rms(broyden)= 0.68151E-06
  rms(prec ) = 0.11091E-05
  weight for this iteration     100.00
  WARNING: grid for Broyden might be to small

 eigenvalues of (default mixing * dielectric matrix)
  average eigenvalue GAMMA=   2.5457
  9.2057  5.8785  3.7582  2.7823  2.4270  1.9982  1.9982  1.4986  0.9916  0.9916
  0.9804  0.9804  1.0381  1.1103

 Free energy of the ion-electron system (eV)
  ---------------------------------------------------
  alpha Z        PSCENC =         0.02803141
  Ewald energy   TEWEN  =       121.58268159
  -Hartree energ DENC   =      -515.31294590
  -exchange      EXHF   =         0.00000000
  -V(xc)+E(xc)   XCENC  =        33.61622440
  PAW double counting   =       561.60941516     -563.35324321
  entropy T*S    EENTRO =        -0.00000000
  eigenvalues    EBANDS =      -109.61384449
  atomic energy  EATOM  =       457.26981990
  Solvation  Ediel_sol  =         0.00000000
  ---------------------------------------------------
  free energy    TOTEN  =       -14.17386115 eV

  energy without entropy =      -14.17386115  energy(sigma->0) =      -14.17386115


--------------------------------------------------------------------------------------------------------




--------------------------------------- Iteration      6(  16)  ---------------------------------------


    POTLOK:  cpu time      0.0657: real time      0.0662
    SETDIJ:  cpu time      0.0896: real time      0.0903
     EDDAV:  cpu time      0.2349: real time      0.2377
       DOS:  cpu time      0.0008: real time      0.0008
    CHARGE:  cpu time      0.0643: real time      0.0655
    MIXING:  cpu time      0.0041: real time      0.0041
    --------------------------------------------
      LOOP:  cpu time      0.4593: real time      0.4645

 eigenvalue-minimisations  :    96
 total energy-change (2. order) :-0.9439213E-07  (-0.1910649E-10)
 number of electron       8.0000001 magnetization 
 augmentation part        0.6836907 magnetization 

 Broyden mixing:
  rms(total) = 0.64396E-05    rms(broyden)= 0.40179E-06
  rms(prec ) = 0.61792E-06
  weight for this iteration     100.00
  WARNING: grid for Broyden might be to small

 eigenvalues of (default mixing * dielectric matrix)
  average eigenvalue GAMMA=   2.6621
  9.5596  6.6778  4.4184  3.1805  2.6530  2.3817  1.9109  1.9109  1.1844  0.9921
  0.9921  1.0826  0.9834  0.9834  1.0210

 Free energy of the ion-electron system (eV)
  ---------------------------------------------------
  alpha Z        PSCENC =         0.02803141
  Ewald energy   TEWEN  =       121.58268159
  -Hartree energ DENC   =      -515.31294571
  -exchange      EXHF   =         0.00000000
  -V(xc)+E(xc)   XCENC  =        33.61622440
  PAW double counting   =       561.60941850     -563.35324643
  entropy T*S    EENTRO =        -0.00000000
  eigenvalues    EBANDS =      -109.61384490
  atomic energy  EATOM  =       457.26981990
  Solvation  Ediel_sol  =         0.00000000
  ---------------------------------------------------
  free energy    TOTEN  =       -14.17386124 eV

  energy without entropy =      -14.17386124  energy(sigma->0) =      -14.17386124


--------------------------------------------------------------------------------------------------------




--------------------------------------- Iteration      6(  17)  ---------------------------------------


    POTLOK:  cpu time      0.0698: real time      0.0703
    SETDIJ:  cpu time      0.0906: real time      0.0912
     EDDAV:  cpu time      0.3148: real time      0.3181
       DOS:  cpu time      0.0009: real time      0.0009
    CHARGE:  cpu time      0.0636: real time      0.0648
    MIXING:  cpu time      0.0046: real time      0.0046
    --------------------------------------------
      LOOP:  cpu time      0.5442: real time      0.5498

 eigenvalue-minimisations  :   128
 total energy-change (2. order) :-0.5521861E-07  (-0.1749711E-10)
 number of electron       8.0000001 magnetization 
 augmentation part        0.6836907 magnetization 

 Broyden mixing:
  rms(total) = 0.64303E-05    rms(broyden)= 0.20545E-06
  rms(prec ) = 0.28527E-06
  weight for this iteration     100.00
  WARNING: grid for Broyden might be to small

 eigenvalues of (default mixing * dielectric matrix)
  average eigenvalue GAMMA=   2.6388
  9.7064  6.8341  4.5983  3.1745  2.5895  2.2274  2.2274  1.8398  1.8398  1.1715
  0.9923  0.9923  1.0555  0.9869  0.9869  0.9974

 Free energy of the ion-electron system (eV)
  ---------------------------------------------------
  alpha Z        PSCENC =         0.02803141
  Ewald energy   TEWEN  =       121.58268159
  -Hartree energ DENC   =      -515.31294597
  -exchange      EXHF   =         0.00000000
  -V(xc)+E(xc)   XCENC  =        33.61622441
  PAW double counting   =       561.60944284     -563.35327065
  entropy T*S    EENTRO =        -0.00000000
  eigenvalues    EBANDS =      -109.61384483
  atomic energy  EATOM  =       457.26981990
  Solvation  Ediel_sol  =         0.00000000
  ---------------------------------------------------
  free energy    TOTEN  =       -14.17386130 eV

  energy without entropy =      -14.17386130  energy(sigma->0) =      -14.17386130


--------------------------------------------------------------------------------------------------------




--------------------------------------- Iteration      6(  18)  ---------------------------------------


    POTLOK:  cpu time      0.0667: real time      0.0672
    SETDIJ:  cpu time      0.0904: real time      0.0910
     EDDAV:  cpu time      0.1693: real time      0.1711
       DOS:  cpu time      0.0008: real time      0.0008
    CHARGE:  cpu time      0.0637: real time      0.0650
    MIXING:  cpu time      0.0041: real time      0.0042
    --------------------------------------------
      LOOP:  cpu time      0.3951: real time      0.3994

 eigenvalue-minimisations  :    64
 total energy-change (2. order) :-0.1201670E-07  (-0.1181810E-10)
 number of electron       8.0000001 magnetization 
 augmentation part        0.6836907 magnetization 

 Broyden mixing:
  rms(total) = 0.64277E-05    rms(broyden)= 0.92059E-07
  rms(prec ) = 0.14388E-06
  weight for this iteration     100.00
  WARNING: grid for Broyden might be to small

 eigenvalues of (default mixing * dielectric matrix)
  average eigenvalue GAMMA=   2.6943
  9.8732  7.1920  5.1031  3.6753  2.9293  2.5889  2.2971  1.9530  1.8498  1.2775
  0.9921  0.9921  1.0612  1.0612  0.9902  0.9902  0.9773

 Free energy of the ion-electron system (eV)
  ---------------------------------------------------
  alpha Z        PSCENC =         0.02803141
  Ewald energy   TEWEN  =       121.58268159
  -Hartree energ DENC   =      -515.31294589
  -exchange      EXHF   =         0.00000000
  -V(xc)+E(xc)   XCENC  =        33.61622441
  PAW double counting   =       561.60941585     -563.35324373
  entropy T*S    EENTRO =        -0.00000000
  eigenvalues    EBANDS =      -109.61384484
  atomic energy  EATOM  =       457.26981990
  Solvation  Ediel_sol  =         0.00000000
  ---------------------------------------------------
  free energy    TOTEN  =       -14.17386131 eV

  energy without entropy =      -14.17386131  energy(sigma->0) =      -14.17386131


--------------------------------------------------------------------------------------------------------




--------------------------------------- Iteration      6(  19)  ---------------------------------------


    POTLOK:  cpu time      0.0660: real time      0.0666
    SETDIJ:  cpu time      0.0900: real time      0.0906
     EDDAV:  cpu time      0.3202: real time      0.3234
       DOS:  cpu time      0.0005: real time      0.0005
    --------------------------------------------
      LOOP:  cpu time      0.4766: real time      0.4811

 eigenvalue-minimisations  :   128
 total energy-change (2. order) :-0.4221533E-08  (-0.1370282E-10)
 number of electron       8.0000001 magnetization 
 augmentation part        0.6836907 magnetization 

 Free energy of the ion-electron system (eV)
  ---------------------------------------------------
  alpha Z        PSCENC =         0.02803141
  Ewald energy   TEWEN  =       121.58268159
  -Hartree energ DENC   =      -515.31294482
  -exchange      EXHF   =         0.00000000
  -V(xc)+E(xc)   XCENC  =        33.61622435
  PAW double counting   =       561.60939761     -563.35322543
  entropy T*S    EENTRO =        -0.00000000
  eigenvalues    EBANDS =      -109.61384592
  atomic energy  EATOM  =       457.26981990
  Solvation  Ediel_sol  =         0.00000000
  ---------------------------------------------------
  free energy    TOTEN  =       -14.17386131 eV

  energy without entropy =      -14.17386131  energy(sigma->0) =      -14.17386131


--------------------------------------------------------------------------------------------------------




 average (electrostatic) potential at core
  the test charge radii are     0.5201  0.7215
  (the norm of the test charge is              1.0000)
       1 -44.8360       2 -44.8370       3 -80.7501



 E-fermi :  -7.1170     XC(G=0):  -0.1048     alpha+bet : -0.0163

 val. band max:       -7.1708419596   @ k =   0.0000   0.0000   0.0000
 cond. band min:      -1.0690594979   @ k =   0.0000   0.0000   0.0000
 fundamental gap:      6.1017824617
 Fermi energy:        -7.1170380204

 k-point     1 :       0.0000    0.0000    0.0000
  band No.  band energies     occupation 
      1     -25.3323      2.00000
      2     -13.0415      2.00000
      3      -9.2623      2.00000
      4      -7.1708      2.00000
      5      -1.0691      0.00000
      6       0.0114      0.00000
      7       0.1967      0.00000
      8       0.2970      0.00000
      9       0.3119      0.00000
     10       0.3412      0.00000
     11       0.3478      0.00000
     12       0.4623      0.00000
     13       0.4969      0.00000
     14       0.6015      0.00000
     15       0.6225      0.00000
     16       0.7076      0.00000
     17       0.7079      0.00000
     18       0.7132      0.00000
     19       0.7172      0.00000
     20       0.7215      0.00000
     21       0.7295      0.00000
     22       0.7315      0.00000
     23       0.7366      0.00000
     24       0.9374      0.00000
     25       0.9376      0.00000
     26       1.0203      0.00000
     27       1.0344      0.00000
     28       1.0810      0.00000
     29       1.0848      0.00000
     30       1.0883      0.00000
     31       1.1044      0.00000
     32       1.2529      0.00000


--------------------------------------------------------------------------------------------------------


 soft charge-density along one line, spin component           1
         0         1         2         3         4         5         6         7         8         9
 total charge-density along one line

 pseudopotential strength for first ion, spin component:           1
 -2.379  -4.109  -0.023   0.000   0.002
 -4.109  -7.012  -0.042   0.001   0.005
 -0.023  -0.042  -0.283  -0.001  -0.005
  0.000   0.001  -0.001  -0.327   0.000
  0.002   0.005  -0.005   0.000  -0.325
 total augmentation occupancy for first ion, spin component:           1
  3.965  -0.866   0.707  -0.015  -0.104
 -0.866   0.236  -0.151   0.003   0.027
  0.707  -0.151   0.126  -0.002  -0.017
 -0.015   0.003  -0.002   0.038   0.000
 -0.104   0.027  -0.017   0.000   0.027


------------------------ aborting loop because EDIFF is reached ----------------------------------------


    CHARGE:  cpu time      0.0636: real time      0.0644
    FORLOC:  cpu time      0.0027: real time      0.0027
    FORNL :  cpu time      0.2456: real time      0.2483
    STRESS:  cpu time      1.6997: real time      1.7132
    FORCOR:  cpu time      0.2376: real time      0.2388
    FORHAR:  cpu time      0.0873: real time      0.0876
    MIXING:  cpu time      0.0028: real time      0.0028
    OFIELD:  cpu time      0.0000: real time      0.0000

 ---------------------------------------------------------------------------------------------

         DFTD3 V3.0 Rev 1        
 Edisp (eV)   -0.00134

 E6    (eV) :    -0.0013
 E8    (eV) :    -0.0001
 % E8        :  5.25
    FORVDW:  cpu time      0.0074: real time      0.0076

  FORCE on cell =-STRESS in cart. coord.  units (eV):
  Direction    XX          YY          ZZ          XY          YZ          ZX
  --------------------------------------------------------------------------------------
  Alpha Z     0.02803     0.02803     0.02803
  Ewald      57.31298    86.04720   -21.77745    22.25556    -1.90468     0.23672
  Hartree   174.87543   179.83425   160.60327     3.82932    -0.34005     0.04605
  E(xc)     -36.31333   -36.17129   -36.76831     0.11032    -0.01073     0.00173
  Local    -317.86273  -343.47208  -248.67581   -19.80783     1.67041    -0.19976
  n-local   -30.68000   -30.20754   -30.81191     0.36327    -0.00883    -0.00587
  augment     6.44646     5.93600     8.08393    -0.39667     0.03840    -0.00615
  Kinetic   145.44365   137.28596   168.48856    -6.32639     0.55300    -0.07227
  Fock        0.00000     0.00000     0.00000     0.00000     0.00000     0.00000
  vdW         0.00263     0.00800    -0.00000     0.00416    -0.00012    -0.00006
  -------------------------------------------------------------------------------------
  Total      -0.74689    -0.71146    -0.82970     0.03174    -0.00260     0.00039
  in kB      -0.14958    -0.14249    -0.16617     0.00636    -0.00052     0.00008
  external pressure =       -0.15 kB  Pullay stress =        0.00 kB


 VOLUME and BASIS-vectors are now :
 -----------------------------------------------------------------------------
  energy-cutoff  :      400.00
  volume of cell :     8000.00
      direct lattice vectors                 reciprocal lattice vectors
    20.000000000  0.000000000  0.000000000     0.050000000  0.000000000  0.000000000
     0.000000000 20.000000000  0.000000000     0.000000000  0.050000000  0.000000000
     0.000000000  0.000000000 20.000000000     0.000000000  0.000000000  0.050000000

  length of vectors
    20.000000000 20.000000000 20.000000000     0.050000000  0.050000000  0.050000000


 FORCES acting on ions
    electron-ion (+dipol)            ewald-force                    non-local-force                 convergence-correction
 -----------------------------------------------------------------------------------------------
   -.108E+02 0.871E+02 -.178E+01   0.118E+02 -.953E+02 0.195E+01   -.105E+01 0.818E+01 -.168E+00   -.397E-07 -.887E-07 -.102E-06
   -.791E+02 -.382E+02 0.731E-01   0.865E+02 0.418E+02 -.791E-01   -.745E+01 -.356E+01 0.603E-02   0.203E-07 0.388E-07 -.482E-07
   0.552E+02 -.300E+02 0.105E+01   -.983E+02 0.535E+02 -.187E+01   0.432E+02 -.235E+02 0.822E+00   -.560E-06 -.320E-06 -.592E-06
 -----------------------------------------------------------------------------------------------
   -.347E+02 0.189E+02 -.660E+00   0.000E+00 0.711E-14 0.000E+00   0.347E+02 -.189E+02 0.660E+00   -.580E-06 -.370E-06 -.742E-06


 POSITION                                       TOTAL-FORCE (eV/Angst)
 -----------------------------------------------------------------------------------
      9.80755      9.62347     10.02000        -0.001790      0.010693     -0.000387
     10.54234     10.97263     10.00000         0.000562     -0.000457      0.000019
      9.65011     10.58390     10.00000         0.001229     -0.010236      0.000368
 -----------------------------------------------------------------------------------
    total drift:                               -0.008776      0.004966     -0.000221


--------------------------------------------------------------------------------------------------------



  FREE ENERGIE OF THE ION-ELECTRON SYSTEM (eV)
  ---------------------------------------------------
  free  energy   TOTEN  =       -14.17520615 eV

  energy  without entropy=      -14.17520615  energy(sigma->0) =      -14.17520615

 d Force = 0.9105600E-02[ 0.206E-03, 0.180E-01]  d Energy = 0.9252331E-02-0.147E-03
 d Force =-0.1850179E+01[-0.187E+01,-0.183E+01]  d Ewald  =-0.1850410E+01 0.231E-03


--------------------------------------------------------------------------------------------------------


    POTLOK:  cpu time      0.1558: real time      0.1570


--------------------------------------------------------------------------------------------------------


 Finite differences progress:
  Degree of freedom:   3/  9
  Displacement:        1/  2
  Total:               5/ 18
    WAVPRE:  cpu time      0.0098: real time      0.0111
    FEWALD:  cpu time      0.0004: real time      0.0003
    ORTHCH:  cpu time      0.0147: real time      0.0149
     LOOP+:  cpu time     11.8779: real time     12.7135


--------------------------------------- Ionic step        7  -------------------------------------------




--------------------------------------- Iteration      7(   1)  ---------------------------------------


    POTLOK:  cpu time      0.0635: real time      0.0648
    SETDIJ:  cpu time      0.0900: real time      0.0907
     EDDAV:  cpu time      0.1689: real time      0.1709
       DOS:  cpu time      0.0007: real time      0.0007
    CHARGE:  cpu time      0.0647: real time      0.0658
    MIXING:  cpu time      0.0034: real time      0.0034
    --------------------------------------------
      LOOP:  cpu time      0.3912: real time      0.3963

 eigenvalue-minimisations  :    64
 total energy-change (2. order) : 0.7977589E-03  (-0.4976892E-01)
 number of electron       8.0000001 magnetization 
 augmentation part        0.6836130 magnetization 

 Broyden mixing:
  rms(total) = 0.22008E-01    rms(broyden)= 0.21865E-01
  rms(prec ) = 0.22489E-01
  weight for this iteration     100.00

 Free energy of the ion-electron system (eV)
  ---------------------------------------------------
  alpha Z        PSCENC =         0.02803141
  Ewald energy   TEWEN  =       121.58268811
  -Hartree energ DENC   =      -515.31334903
  -exchange      EXHF   =         0.00000000
  -V(xc)+E(xc)   XCENC  =        33.61688720
  PAW double counting   =       561.60941167     -563.35323951
  entropy T*S    EENTRO =        -0.00000000
  eigenvalues    EBANDS =      -109.61331331
  atomic energy  EATOM  =       457.26981990
  Solvation  Ediel_sol  =         0.00000000
  ---------------------------------------------------
  free energy    TOTEN  =       -14.17306355 eV

  energy without entropy =      -14.17306355  energy(sigma->0) =      -14.17306355


--------------------------------------------------------------------------------------------------------




--------------------------------------- Iteration      7(   2)  ---------------------------------------


    POTLOK:  cpu time      0.0643: real time      0.0648
    SETDIJ:  cpu time      0.0898: real time      0.0904
     EDDAV:  cpu time      0.2362: real time      0.2387
       DOS:  cpu time      0.0007: real time      0.0007
    CHARGE:  cpu time      0.0644: real time      0.0656
    MIXING:  cpu time      0.0043: real time      0.0043
    --------------------------------------------
      LOOP:  cpu time      0.4597: real time      0.4646

 eigenvalue-minimisations  :    96
 total energy-change (2. order) :-0.3126012E-03  (-0.3837600E-03)
 number of electron       8.0000001 magnetization 
 augmentation part        0.6837308 magnetization 

 Broyden mixing:
  rms(total) = 0.12970E-01    rms(broyden)= 0.12960E-01
  rms(prec ) = 0.13403E-01
  weight for this iteration     100.00

 eigenvalues of (default mixing * dielectric matrix)
  average eigenvalue GAMMA=   2.1398
  2.1398

 Free energy of the ion-electron system (eV)
  ---------------------------------------------------
  alpha Z        PSCENC =         0.02803141
  Ewald energy   TEWEN  =       121.58268811
  -Hartree energ DENC   =      -515.30815001
  -exchange      EXHF   =         0.00000000
  -V(xc)+E(xc)   XCENC  =        33.61632333
  PAW double counting   =       561.61020408     -563.35389243
  entropy T*S    EENTRO =        -0.00000000
  eigenvalues    EBANDS =      -109.61840053
  atomic energy  EATOM  =       457.26981990
  Solvation  Ediel_sol  =         0.00000000
  ---------------------------------------------------
  free energy    TOTEN  =       -14.17337615 eV

  energy without entropy =      -14.17337615  energy(sigma->0) =      -14.17337615


--------------------------------------------------------------------------------------------------------




--------------------------------------- Iteration      7(   3)  ---------------------------------------


    POTLOK:  cpu time      0.0634: real time      0.0646
    SETDIJ:  cpu time      0.0915: real time      0.0922
     EDDAV:  cpu time      0.2357: real time      0.2382
       DOS:  cpu time      0.0008: real time      0.0008
    CHARGE:  cpu time      0.0644: real time      0.0656
    MIXING:  cpu time      0.0030: real time      0.0037
    --------------------------------------------
      LOOP:  cpu time      0.4588: real time      0.4651

 eigenvalue-minimisations  :    96
 total energy-change (2. order) :-0.2150786E-03  (-0.1606073E-04)
 number of electron       8.0000001 magnetization 
 augmentation part        0.6836508 magnetization 

 Broyden mixing:
  rms(total) = 0.23112E-02    rms(broyden)= 0.23090E-02
  rms(prec ) = 0.25559E-02
  weight for this iteration     100.00

 eigenvalues of (default mixing * dielectric matrix)
  average eigenvalue GAMMA=   1.8049
  1.0465  2.5634

 Free energy of the ion-electron system (eV)
  ---------------------------------------------------
  alpha Z        PSCENC =         0.02803141
  Ewald energy   TEWEN  =       121.58268811
  -Hartree energ DENC   =      -515.32201086
  -exchange      EXHF   =         0.00000000
  -V(xc)+E(xc)   XCENC  =        33.61685445
  PAW double counting   =       561.63127379     -563.37519579
  entropy T*S    EENTRO =        -0.00000000
  eigenvalues    EBANDS =      -109.60505224
  atomic energy  EATOM  =       457.26981990
  Solvation  Ediel_sol  =         0.00000000
  ---------------------------------------------------
  free energy    TOTEN  =       -14.17359123 eV

  energy without entropy =      -14.17359123  energy(sigma->0) =      -14.17359123


--------------------------------------------------------------------------------------------------------




--------------------------------------- Iteration      7(   4)  ---------------------------------------


    POTLOK:  cpu time      0.0639: real time      0.0644
    SETDIJ:  cpu time      0.0903: real time      0.0909
     EDDAV:  cpu time      0.3165: real time      0.3198
       DOS:  cpu time      0.0007: real time      0.0007
    CHARGE:  cpu time      0.0637: real time      0.0650
    MIXING:  cpu time      0.0030: real time      0.0030
    --------------------------------------------
      LOOP:  cpu time      0.5381: real time      0.5438

 eigenvalue-minimisations  :   128
 total energy-change (2. order) :-0.2434603E-04  (-0.1271165E-05)
 number of electron       8.0000001 magnetization 
 augmentation part        0.6836980 magnetization 

 Broyden mixing:
  rms(total) = 0.67743E-03    rms(broyden)= 0.67675E-03
  rms(prec ) = 0.94051E-03
  weight for this iteration     100.00

 eigenvalues of (default mixing * dielectric matrix)
  average eigenvalue GAMMA=   1.7999
  0.9556  2.5668  1.8771

 Free energy of the ion-electron system (eV)
  ---------------------------------------------------
  alpha Z        PSCENC =         0.02803141
  Ewald energy   TEWEN  =       121.58268811
  -Hartree energ DENC   =      -515.31563074
  -exchange      EXHF   =         0.00000000
  -V(xc)+E(xc)   XCENC  =        33.61649695
  PAW double counting   =       561.61529648     -563.35911411
  entropy T*S    EENTRO =        -0.00000000
  eigenvalues    EBANDS =      -109.61120358
  atomic energy  EATOM  =       457.26981990
  Solvation  Ediel_sol  =         0.00000000
  ---------------------------------------------------
  free energy    TOTEN  =       -14.17361557 eV

  energy without entropy =      -14.17361557  energy(sigma->0) =      -14.17361557


--------------------------------------------------------------------------------------------------------




--------------------------------------- Iteration      7(   5)  ---------------------------------------


    POTLOK:  cpu time      0.0636: real time      0.0647
    SETDIJ:  cpu time      0.0902: real time      0.0909
     EDDAV:  cpu time      0.3159: real time      0.3191
       DOS:  cpu time      0.0009: real time      0.0009
    CHARGE:  cpu time      0.0636: real time      0.0648
    MIXING:  cpu time      0.0032: real time      0.0033
    --------------------------------------------
      LOOP:  cpu time      0.5375: real time      0.5437

 eigenvalue-minimisations  :   128
 total energy-change (2. order) :-0.6977069E-04  (-0.9126697E-06)
 number of electron       8.0000001 magnetization 
 augmentation part        0.6836935 magnetization 

 Broyden mixing:
  rms(total) = 0.26297E-03    rms(broyden)= 0.26283E-03
  rms(prec ) = 0.49208E-03
  weight for this iteration     100.00

 eigenvalues of (default mixing * dielectric matrix)
  average eigenvalue GAMMA=   1.8780
  3.0152  2.4671  0.9308  1.0990

 Free energy of the ion-electron system (eV)
  ---------------------------------------------------
  alpha Z        PSCENC =         0.02803141
  Ewald energy   TEWEN  =       121.58268811
  -Hartree energ DENC   =      -515.31533430
  -exchange      EXHF   =         0.00000000
  -V(xc)+E(xc)   XCENC  =        33.61645342
  PAW double counting   =       561.61361248     -563.35744700
  entropy T*S    EENTRO =        -0.00000000
  eigenvalues    EBANDS =      -109.61150936
  atomic energy  EATOM  =       457.26981990
  Solvation  Ediel_sol  =         0.00000000
  ---------------------------------------------------
  free energy    TOTEN  =       -14.17368535 eV

  energy without entropy =      -14.17368535  energy(sigma->0) =      -14.17368535


--------------------------------------------------------------------------------------------------------




--------------------------------------- Iteration      7(   6)  ---------------------------------------


    POTLOK:  cpu time      0.0638: real time      0.0647
    SETDIJ:  cpu time      0.0897: real time      0.0903
     EDDAV:  cpu time      0.2377: real time      0.2402
       DOS:  cpu time      0.0007: real time      0.0007
    CHARGE:  cpu time      0.0630: real time      0.0642
    MIXING:  cpu time      0.0026: real time      0.0026
    --------------------------------------------
      LOOP:  cpu time      0.4576: real time      0.4628

 eigenvalue-minimisations  :    96
 total energy-change (2. order) :-0.5740254E-04  (-0.7905488E-06)
 number of electron       8.0000001 magnetization 
 augmentation part        0.6836901 magnetization 

 Broyden mixing:
  rms(total) = 0.17376E-03    rms(broyden)= 0.17356E-03
  rms(prec ) = 0.30498E-03
  weight for this iteration     100.00

 eigenvalues of (default mixing * dielectric matrix)
  average eigenvalue GAMMA=   2.1330
  3.8757  0.9958  0.9958  2.5960  2.2016

 Free energy of the ion-electron system (eV)
  ---------------------------------------------------
  alpha Z        PSCENC =         0.02803141
  Ewald energy   TEWEN  =       121.58268811
  -Hartree energ DENC   =      -515.31494451
  -exchange      EXHF   =         0.00000000
  -V(xc)+E(xc)   XCENC  =        33.61640032
  PAW double counting   =       561.61132370     -563.35516518
  entropy T*S    EENTRO =        -0.00000000
  eigenvalues    EBANDS =      -109.61189651
  atomic energy  EATOM  =       457.26981990
  Solvation  Ediel_sol  =         0.00000000
  ---------------------------------------------------
  free energy    TOTEN  =       -14.17374275 eV

  energy without entropy =      -14.17374275  energy(sigma->0) =      -14.17374275


--------------------------------------------------------------------------------------------------------




--------------------------------------- Iteration      7(   7)  ---------------------------------------


    POTLOK:  cpu time      0.0652: real time      0.0657
    SETDIJ:  cpu time      0.0899: real time      0.0905
     EDDAV:  cpu time      0.1698: real time      0.1716
       DOS:  cpu time      0.0008: real time      0.0008
    CHARGE:  cpu time      0.0641: real time      0.0653
    MIXING:  cpu time      0.0025: real time      0.0025
    --------------------------------------------
      LOOP:  cpu time      0.3922: real time      0.3965

 eigenvalue-minimisations  :    64
 total energy-change (2. order) :-0.6536174E-04  (-0.1150330E-05)
 number of electron       8.0000001 magnetization 
 augmentation part        0.6836905 magnetization 

 Broyden mixing:
  rms(total) = 0.75719E-04    rms(broyden)= 0.75331E-04
  rms(prec ) = 0.14279E-03
  weight for this iteration     100.00

 eigenvalues of (default mixing * dielectric matrix)
  average eigenvalue GAMMA=   2.2557
  4.5273  2.7892  2.4134  0.9904  0.9904  1.8232

 Free energy of the ion-electron system (eV)
  ---------------------------------------------------
  alpha Z        PSCENC =         0.02803141
  Ewald energy   TEWEN  =       121.58268811
  -Hartree energ DENC   =      -515.31365656
  -exchange      EXHF   =         0.00000000
  -V(xc)+E(xc)   XCENC  =        33.61628862
  PAW double counting   =       561.60859758     -563.35242549
  entropy T*S    EENTRO =        -0.00000000
  eigenvalues    EBANDS =      -109.61315168
  atomic energy  EATOM  =       457.26981990
  Solvation  Ediel_sol  =         0.00000000
  ---------------------------------------------------
  free energy    TOTEN  =       -14.17380811 eV

  energy without entropy =      -14.17380811  energy(sigma->0) =      -14.17380811


--------------------------------------------------------------------------------------------------------




--------------------------------------- Iteration      7(   8)  ---------------------------------------


    POTLOK:  cpu time      0.0647: real time      0.0658
    SETDIJ:  cpu time      0.0898: real time      0.0904
     EDDAV:  cpu time      0.2363: real time      0.2387
       DOS:  cpu time      0.0007: real time      0.0007
    CHARGE:  cpu time      0.0646: real time      0.0658
    MIXING:  cpu time      0.0022: real time      0.0023
    --------------------------------------------
      LOOP:  cpu time      0.4582: real time      0.4636

 eigenvalue-minimisations  :    96
 total energy-change (2. order) :-0.2711115E-04  (-0.2563682E-06)
 number of electron       8.0000001 magnetization 
 augmentation part        0.6836931 magnetization 

 Broyden mixing:
  rms(total) = 0.47732E-04    rms(broyden)= 0.47255E-04
  rms(prec ) = 0.80436E-04
  weight for this iteration     100.00

 eigenvalues of (default mixing * dielectric matrix)
  average eigenvalue GAMMA=   2.3875
  5.8604  3.0643  2.5184  2.0499  0.9649  1.0087  1.2456

 Free energy of the ion-electron system (eV)
  ---------------------------------------------------
  alpha Z        PSCENC =         0.02803141
  Ewald energy   TEWEN  =       121.58268811
  -Hartree energ DENC   =      -515.31293339
  -exchange      EXHF   =         0.00000000
  -V(xc)+E(xc)   XCENC  =        33.61623562
  PAW double counting   =       561.60861118     -563.35243445
  entropy T*S    EENTRO =        -0.00000000
  eigenvalues    EBANDS =      -109.61385360
  atomic energy  EATOM  =       457.26981990
  Solvation  Ediel_sol  =         0.00000000
  ---------------------------------------------------
  free energy    TOTEN  =       -14.17383522 eV

  energy without entropy =      -14.17383522  energy(sigma->0) =      -14.17383522


--------------------------------------------------------------------------------------------------------




--------------------------------------- Iteration      7(   9)  ---------------------------------------


    POTLOK:  cpu time      0.0646: real time      0.0655
    SETDIJ:  cpu time      0.0898: real time      0.0904
     EDDAV:  cpu time      0.1722: real time      0.1740
       DOS:  cpu time      0.0006: real time      0.0006
    CHARGE:  cpu time      0.0634: real time      0.0646
    MIXING:  cpu time      0.0026: real time      0.0026
    --------------------------------------------
      LOOP:  cpu time      0.3932: real time      0.3978

 eigenvalue-minimisations  :    64
 total energy-change (2. order) :-0.1182584E-04  (-0.5440018E-07)
 number of electron       8.0000001 magnetization 
 augmentation part        0.6836893 magnetization 

 Broyden mixing:
  rms(total) = 0.25785E-04    rms(broyden)= 0.24960E-04
  rms(prec ) = 0.45305E-04
  weight for this iteration     100.00

 eigenvalues of (default mixing * dielectric matrix)
  average eigenvalue GAMMA=   2.6164
  7.0200  3.7246  2.7150  2.5171  1.9194  0.9486  0.9977  1.0893

 Free energy of the ion-electron system (eV)
  ---------------------------------------------------
  alpha Z        PSCENC =         0.02803141
  Ewald energy   TEWEN  =       121.58268811
  -Hartree energ DENC   =      -515.31326785
  -exchange      EXHF   =         0.00000000
  -V(xc)+E(xc)   XCENC  =        33.61624923
  PAW double counting   =       561.60996287     -563.35379453
  entropy T*S    EENTRO =        -0.00000000
  eigenvalues    EBANDS =      -109.61353618
  atomic energy  EATOM  =       457.26981990
  Solvation  Ediel_sol  =         0.00000000
  ---------------------------------------------------
  free energy    TOTEN  =       -14.17384705 eV

  energy without entropy =      -14.17384705  energy(sigma->0) =      -14.17384705


--------------------------------------------------------------------------------------------------------




--------------------------------------- Iteration      7(  10)  ---------------------------------------


    POTLOK:  cpu time      0.0649: real time      0.0659
    SETDIJ:  cpu time      0.0899: real time      0.0905
     EDDAV:  cpu time      0.2377: real time      0.2401
       DOS:  cpu time      0.0007: real time      0.0007
    CHARGE:  cpu time      0.0639: real time      0.0651
    MIXING:  cpu time      0.0039: real time      0.0039
    --------------------------------------------
      LOOP:  cpu time      0.4610: real time      0.4663

 eigenvalue-minimisations  :    96
 total energy-change (2. order) :-0.8773817E-05  (-0.3635341E-07)
 number of electron       8.0000001 magnetization 
 augmentation part        0.6836916 magnetization 

 Broyden mixing:
  rms(total) = 0.20151E-04    rms(broyden)= 0.19081E-04
  rms(prec ) = 0.24920E-04
  weight for this iteration     100.00

 eigenvalues of (default mixing * dielectric matrix)
  average eigenvalue GAMMA=   2.5692
  7.5673  3.8798  2.7769  2.1864  2.1864  1.5736  1.0483  0.9832  0.9207

 Free energy of the ion-electron system (eV)
  ---------------------------------------------------
  alpha Z        PSCENC =         0.02803141
  Ewald energy   TEWEN  =       121.58268811
  -Hartree energ DENC   =      -515.31283485
  -exchange      EXHF   =         0.00000000
  -V(xc)+E(xc)   XCENC  =        33.61622155
  PAW double counting   =       561.60927146     -563.35309584
  entropy T*S    EENTRO =        -0.00000000
  eigenvalues    EBANDS =      -109.61395756
  atomic energy  EATOM  =       457.26981990
  Solvation  Ediel_sol  =         0.00000000
  ---------------------------------------------------
  free energy    TOTEN  =       -14.17385582 eV

  energy without entropy =      -14.17385582  energy(sigma->0) =      -14.17385582


--------------------------------------------------------------------------------------------------------




--------------------------------------- Iteration      7(  11)  ---------------------------------------


    POTLOK:  cpu time      0.0653: real time      0.0658
    SETDIJ:  cpu time      0.0895: real time      0.0901
     EDDAV:  cpu time      0.3171: real time      0.3202
       DOS:  cpu time      0.0008: real time      0.0008
    CHARGE:  cpu time      0.0637: real time      0.0651
    MIXING:  cpu time      0.0028: real time      0.0028
    --------------------------------------------
      LOOP:  cpu time      0.5392: real time      0.5448

 eigenvalue-minimisations  :   128
 total energy-change (2. order) :-0.1907395E-05  (-0.1268106E-08)
 number of electron       8.0000001 magnetization 
 augmentation part        0.6836905 magnetization 

 Broyden mixing:
  rms(total) = 0.10137E-04    rms(broyden)= 0.78385E-05
  rms(prec ) = 0.13574E-04
  weight for this iteration     100.00
  WARNING: grid for Broyden might be to small

 eigenvalues of (default mixing * dielectric matrix)
  average eigenvalue GAMMA=   2.6452
  8.2334  4.6288  2.9433  2.5423  2.0448  2.0448  0.9153  1.0041  1.0041  1.0914

 Free energy of the ion-electron system (eV)
  ---------------------------------------------------
  alpha Z        PSCENC =         0.02803141
  Ewald energy   TEWEN  =       121.58268811
  -Hartree energ DENC   =      -515.31298992
  -exchange      EXHF   =         0.00000000
  -V(xc)+E(xc)   XCENC  =        33.61622874
  PAW double counting   =       561.60950959     -563.35333748
  entropy T*S    EENTRO =        -0.00000000
  eigenvalues    EBANDS =      -109.61380808
  atomic energy  EATOM  =       457.26981990
  Solvation  Ediel_sol  =         0.00000000
  ---------------------------------------------------
  free energy    TOTEN  =       -14.17385773 eV

  energy without entropy =      -14.17385773  energy(sigma->0) =      -14.17385773


--------------------------------------------------------------------------------------------------------




--------------------------------------- Iteration      7(  12)  ---------------------------------------


    POTLOK:  cpu time      0.0656: real time      0.0661
    SETDIJ:  cpu time      0.0899: real time      0.0905
     EDDAV:  cpu time      0.2412: real time      0.2437
       DOS:  cpu time      0.0007: real time      0.0007
    CHARGE:  cpu time      0.0636: real time      0.0648
    MIXING:  cpu time      0.0028: real time      0.0028
    --------------------------------------------
      LOOP:  cpu time      0.4637: real time      0.4687

 eigenvalue-minimisations  :    96
 total energy-change (2. order) :-0.1888064E-05  (-0.3055655E-08)
 number of electron       8.0000001 magnetization 
 augmentation part        0.6836905 magnetization 

 Broyden mixing:
  rms(total) = 0.74970E-05    rms(broyden)= 0.38601E-05
  rms(prec ) = 0.68867E-05
  weight for this iteration     100.00
  WARNING: grid for Broyden might be to small

 eigenvalues of (default mixing * dielectric matrix)
  average eigenvalue GAMMA=   2.7531
  8.8012  5.2479  3.4761  2.7613  2.4454  1.7890  1.7890  0.9250  1.0455  1.0020
  1.0020

 Free energy of the ion-electron system (eV)
  ---------------------------------------------------
  alpha Z        PSCENC =         0.02803141
  Ewald energy   TEWEN  =       121.58268811
  -Hartree energ DENC   =      -515.31299062
  -exchange      EXHF   =         0.00000000
  -V(xc)+E(xc)   XCENC  =        33.61622760
  PAW double counting   =       561.60944748     -563.35327596
  entropy T*S    EENTRO =        -0.00000000
  eigenvalues    EBANDS =      -109.61380753
  atomic energy  EATOM  =       457.26981990
  Solvation  Ediel_sol  =         0.00000000
  ---------------------------------------------------
  free energy    TOTEN  =       -14.17385962 eV

  energy without entropy =      -14.17385962  energy(sigma->0) =      -14.17385962


--------------------------------------------------------------------------------------------------------




--------------------------------------- Iteration      7(  13)  ---------------------------------------


    POTLOK:  cpu time      0.0663: real time      0.0669
    SETDIJ:  cpu time      0.0894: real time      0.0901
     EDDAV:  cpu time      0.2421: real time      0.2445
       DOS:  cpu time      0.0010: real time      0.0010
    CHARGE:  cpu time      0.0642: real time      0.0655
    MIXING:  cpu time      0.0029: real time      0.0029
    --------------------------------------------
      LOOP:  cpu time      0.4659: real time      0.4708

 eigenvalue-minimisations  :    96
 total energy-change (2. order) :-0.1041535E-05  (-0.1279039E-08)
 number of electron       8.0000001 magnetization 
 augmentation part        0.6836908 magnetization 

 Broyden mixing:
  rms(total) = 0.70564E-05    rms(broyden)= 0.29166E-05
  rms(prec ) = 0.38719E-05
  weight for this iteration     100.00
  WARNING: grid for Broyden might be to small

 eigenvalues of (default mixing * dielectric matrix)
  average eigenvalue GAMMA=   2.8495
  9.2130  5.9555  3.9799  2.9243  2.5670  2.3545  1.9467  1.2745  0.9284  1.0267
  1.0267  0.9968

 Free energy of the ion-electron system (eV)
  ---------------------------------------------------
  alpha Z        PSCENC =         0.02803141
  Ewald energy   TEWEN  =       121.58268811
  -Hartree energ DENC   =      -515.31294292
  -exchange      EXHF   =         0.00000000
  -V(xc)+E(xc)   XCENC  =        33.61622424
  PAW double counting   =       561.60938194     -563.35320986
  entropy T*S    EENTRO =        -0.00000000
  eigenvalues    EBANDS =      -109.61385348
  atomic energy  EATOM  =       457.26981990
  Solvation  Ediel_sol  =         0.00000000
  ---------------------------------------------------
  free energy    TOTEN  =       -14.17386066 eV

  energy without entropy =      -14.17386066  energy(sigma->0) =      -14.17386066


--------------------------------------------------------------------------------------------------------




--------------------------------------- Iteration      7(  14)  ---------------------------------------


    POTLOK:  cpu time      0.0642: real time      0.0653
    SETDIJ:  cpu time      0.0902: real time      0.0910
     EDDAV:  cpu time      0.3153: real time      0.3187
       DOS:  cpu time      0.0008: real time      0.0008
    CHARGE:  cpu time      0.0638: real time      0.0650
    MIXING:  cpu time      0.0030: real time      0.0030
    --------------------------------------------
      LOOP:  cpu time      0.5372: real time      0.5438

 eigenvalue-minimisations  :   128
 total energy-change (2. order) :-0.3933893E-06  (-0.2145324E-09)
 number of electron       8.0000001 magnetization 
 augmentation part        0.6836906 magnetization 

 Broyden mixing:
  rms(total) = 0.65414E-05    rms(broyden)= 0.12275E-05
  rms(prec ) = 0.16370E-05
  weight for this iteration     100.00
  WARNING: grid for Broyden might be to small

 eigenvalues of (default mixing * dielectric matrix)
  average eigenvalue GAMMA=   2.8644
  9.4615  6.4623  4.2469  3.1307  2.6959  2.4167  1.8978  1.8978  0.9331  0.9928
  1.0472  1.0273  1.0273

 Free energy of the ion-electron system (eV)
  ---------------------------------------------------
  alpha Z        PSCENC =         0.02803141
  Ewald energy   TEWEN  =       121.58268811
  -Hartree energ DENC   =      -515.31296958
  -exchange      EXHF   =         0.00000000
  -V(xc)+E(xc)   XCENC  =        33.61622564
  PAW double counting   =       561.60949794     -563.35332610
  entropy T*S    EENTRO =        -0.00000000
  eigenvalues    EBANDS =      -109.61382838
  atomic energy  EATOM  =       457.26981990
  Solvation  Ediel_sol  =         0.00000000
  ---------------------------------------------------
  free energy    TOTEN  =       -14.17386105 eV

  energy without entropy =      -14.17386105  energy(sigma->0) =      -14.17386105


--------------------------------------------------------------------------------------------------------




--------------------------------------- Iteration      7(  15)  ---------------------------------------


    POTLOK:  cpu time      0.0647: real time      0.0657
    SETDIJ:  cpu time      0.0899: real time      0.0905
     EDDAV:  cpu time      0.1679: real time      0.1699
       DOS:  cpu time      0.0007: real time      0.0008
    CHARGE:  cpu time      0.0638: real time      0.0654
    MIXING:  cpu time      0.0029: real time      0.0030
    --------------------------------------------
      LOOP:  cpu time      0.3901: real time      0.3952

 eigenvalue-minimisations  :    64
 total energy-change (2. order) :-0.1347373E-06  (-0.3386091E-10)
 number of electron       8.0000001 magnetization 
 augmentation part        0.6836907 magnetization 

 Broyden mixing:
  rms(total) = 0.64725E-05    rms(broyden)= 0.78100E-06
  rms(prec ) = 0.95025E-06
  weight for this iteration     100.00
  WARNING: grid for Broyden might be to small

 eigenvalues of (default mixing * dielectric matrix)
  average eigenvalue GAMMA=   2.8543
  9.6519  6.7591  4.5492  3.3106  2.7805  2.5134  2.1642  2.0640  1.2002  1.0542
  0.9436  0.9784  0.9784  1.0124

 Free energy of the ion-electron system (eV)
  ---------------------------------------------------
  alpha Z        PSCENC =         0.02803141
  Ewald energy   TEWEN  =       121.58268811
  -Hartree energ DENC   =      -515.31295152
  -exchange      EXHF   =         0.00000000
  -V(xc)+E(xc)   XCENC  =        33.61622464
  PAW double counting   =       561.60944860     -563.35327634
  entropy T*S    EENTRO =        -0.00000000
  eigenvalues    EBANDS =      -109.61384599
  atomic energy  EATOM  =       457.26981990
  Solvation  Ediel_sol  =         0.00000000
  ---------------------------------------------------
  free energy    TOTEN  =       -14.17386119 eV

  energy without entropy =      -14.17386119  energy(sigma->0) =      -14.17386119


--------------------------------------------------------------------------------------------------------




--------------------------------------- Iteration      7(  16)  ---------------------------------------


    POTLOK:  cpu time      0.0646: real time      0.0657
    SETDIJ:  cpu time      0.0901: real time      0.0907
     EDDAV:  cpu time      0.1685: real time      0.1703
       DOS:  cpu time      0.0007: real time      0.0007
    CHARGE:  cpu time      0.0640: real time      0.0652
    MIXING:  cpu time      0.0032: real time      0.0032
    --------------------------------------------
      LOOP:  cpu time      0.3910: real time      0.3958

 eigenvalue-minimisations  :    64
 total energy-change (2. order) :-0.5990410E-07  (-0.1908873E-10)
 number of electron       8.0000001 magnetization 
 augmentation part        0.6836907 magnetization 

 Broyden mixing:
  rms(total) = 0.64348E-05    rms(broyden)= 0.35308E-06
  rms(prec ) = 0.45313E-06
  weight for this iteration     100.00
  WARNING: grid for Broyden might be to small

 eigenvalues of (default mixing * dielectric matrix)
  average eigenvalue GAMMA=   2.8656
  9.7903  7.0397  4.8726  3.5129  2.8313  2.5792  2.4076  1.9566  1.9566  1.0634
  1.0634  0.9411  0.9803  0.9803  1.0086

 Free energy of the ion-electron system (eV)
  ---------------------------------------------------
  alpha Z        PSCENC =         0.02803141
  Ewald energy   TEWEN  =       121.58268811
  -Hartree energ DENC   =      -515.31295089
  -exchange      EXHF   =         0.00000000
  -V(xc)+E(xc)   XCENC  =        33.61622461
  PAW double counting   =       561.60943298     -563.35326083
  entropy T*S    EENTRO =        -0.00000000
  eigenvalues    EBANDS =      -109.61384654
  atomic energy  EATOM  =       457.26981990
  Solvation  Ediel_sol  =         0.00000000
  ---------------------------------------------------
  free energy    TOTEN  =       -14.17386125 eV

  energy without entropy =      -14.17386125  energy(sigma->0) =      -14.17386125


--------------------------------------------------------------------------------------------------------




--------------------------------------- Iteration      7(  17)  ---------------------------------------


    POTLOK:  cpu time      0.0671: real time      0.0676
    SETDIJ:  cpu time      0.0897: real time      0.0903
     EDDAV:  cpu time      0.1687: real time      0.1705
       DOS:  cpu time      0.0008: real time      0.0008
    CHARGE:  cpu time      0.0633: real time      0.0646
    MIXING:  cpu time      0.0032: real time      0.0032
    --------------------------------------------
      LOOP:  cpu time      0.3927: real time      0.3969

 eigenvalue-minimisations  :    64
 total energy-change (2. order) :-0.2261186E-07  (-0.1453060E-10)
 number of electron       8.0000001 magnetization 
 augmentation part        0.6836907 magnetization 

 Broyden mixing:
  rms(total) = 0.64272E-05    rms(broyden)= 0.16172E-06
  rms(prec ) = 0.22178E-06
  weight for this iteration     100.00
  WARNING: grid for Broyden might be to small

 eigenvalues of (default mixing * dielectric matrix)
  average eigenvalue GAMMA=   2.8534
  9.8763  7.2576  5.1791  3.8380  2.9907  2.6484  2.4156  1.9763  1.9763  1.3472
  0.9361  0.9962  0.9962  0.9987  1.0702  1.1523

 Free energy of the ion-electron system (eV)
  ---------------------------------------------------
  alpha Z        PSCENC =         0.02803141
  Ewald energy   TEWEN  =       121.58268811
  -Hartree energ DENC   =      -515.31295427
  -exchange      EXHF   =         0.00000000
  -V(xc)+E(xc)   XCENC  =        33.61622481
  PAW double counting   =       561.60943944     -563.35326743
  entropy T*S    EENTRO =        -0.00000000
  eigenvalues    EBANDS =      -109.61384324
  atomic energy  EATOM  =       457.26981990
  Solvation  Ediel_sol  =         0.00000000
  ---------------------------------------------------
  free energy    TOTEN  =       -14.17386127 eV

  energy without entropy =      -14.17386127  energy(sigma->0) =      -14.17386127


--------------------------------------------------------------------------------------------------------




--------------------------------------- Iteration      7(  18)  ---------------------------------------


    POTLOK:  cpu time      0.0663: real time      0.0673
    SETDIJ:  cpu time      0.0895: real time      0.0901
     EDDAV:  cpu time      0.3174: real time      0.3208
       DOS:  cpu time      0.0006: real time      0.0007
    --------------------------------------------
      LOOP:  cpu time      0.4739: real time      0.4788

 eigenvalue-minimisations  :   128
 total energy-change (2. order) :-0.6528126E-08  (-0.1016609E-10)
 number of electron       8.0000001 magnetization 
 augmentation part        0.6836907 magnetization 

 Free energy of the ion-electron system (eV)
  ---------------------------------------------------
  alpha Z        PSCENC =         0.02803141
  Ewald energy   TEWEN  =       121.58268811
  -Hartree energ DENC   =      -515.31295148
  -exchange      EXHF   =         0.00000000
  -V(xc)+E(xc)   XCENC  =        33.61622467
  PAW double counting   =       561.60943381     -563.35326174
  entropy T*S    EENTRO =        -0.00000000
  eigenvalues    EBANDS =      -109.61384595
  atomic energy  EATOM  =       457.26981990
  Solvation  Ediel_sol  =         0.00000000
  ---------------------------------------------------
  free energy    TOTEN  =       -14.17386127 eV

  energy without entropy =      -14.17386127  energy(sigma->0) =      -14.17386127


--------------------------------------------------------------------------------------------------------




 average (electrostatic) potential at core
  the test charge radii are     0.5201  0.7215
  (the norm of the test charge is              1.0000)
       1 -44.8360       2 -44.8370       3 -80.7501



 E-fermi :  -7.1170     XC(G=0):  -0.1047     alpha+bet : -0.0163

 val. band max:       -7.1708418882   @ k =   0.0000   0.0000   0.0000
 cond. band min:      -1.0690579031   @ k =   0.0000   0.0000   0.0000
 fundamental gap:      6.1017839851
 Fermi energy:        -7.1169649305

 k-point     1 :       0.0000    0.0000    0.0000
  band No.  band energies     occupation 
      1     -25.3323      2.00000
      2     -13.0415      2.00000
      3      -9.2623      2.00000
      4      -7.1708      2.00000
      5      -1.0691      0.00000
      6       0.0116      0.00000
      7       0.1968      0.00000
      8       0.2971      0.00000
      9       0.3121      0.00000
     10       0.3412      0.00000
     11       0.3480      0.00000
     12       0.4624      0.00000
     13       0.4971      0.00000
     14       0.6015      0.00000
     15       0.6226      0.00000
     16       0.7076      0.00000
     17       0.7081      0.00000
     18       0.7133      0.00000
     19       0.7174      0.00000
     20       0.7217      0.00000
     21       0.7295      0.00000
     22       0.7315      0.00000
     23       0.7369      0.00000
     24       0.9376      0.00000
     25       0.9376      0.00000
     26       1.0203      0.00000
     27       1.0345      0.00000
     28       1.0812      0.00000
     29       1.0851      0.00000
     30       1.0881      0.00000
     31       1.1046      0.00000
     32       1.2530      0.00000


--------------------------------------------------------------------------------------------------------


 soft charge-density along one line, spin component           1
         0         1         2         3         4         5         6         7         8         9
 total charge-density along one line

 pseudopotential strength for first ion, spin component:           1
 -2.379  -4.109  -0.023  -0.000   0.002
 -4.109  -7.012  -0.042  -0.001   0.005
 -0.023  -0.042  -0.283   0.001  -0.005
 -0.000  -0.001   0.001  -0.327  -0.000
  0.002   0.005  -0.005  -0.000  -0.325
 total augmentation occupancy for first ion, spin component:           1
  3.965  -0.866   0.707   0.015  -0.104
 -0.866   0.236  -0.151  -0.003   0.027
  0.707  -0.151   0.126   0.002  -0.017
  0.015  -0.003   0.002   0.038  -0.000
 -0.104   0.027  -0.017  -0.000   0.027


------------------------ aborting loop because EDIFF is reached ----------------------------------------


    CHARGE:  cpu time      0.0630: real time      0.0637
    FORLOC:  cpu time      0.0040: real time      0.0040
    FORNL :  cpu time      0.2448: real time      0.2475
    STRESS:  cpu time      0.9250: real time      0.9350
    FORCOR:  cpu time      0.0559: real time      0.0564
    FORHAR:  cpu time      0.0148: real time      0.0149
    MIXING:  cpu time      0.0027: real time      0.0027
    OFIELD:  cpu time      0.0000: real time      0.0000

 ---------------------------------------------------------------------------------------------

         DFTD3 V3.0 Rev 1        
 Edisp (eV)   -0.00134

 E6    (eV) :    -0.0013
 E8    (eV) :    -0.0001
 % E8        :  5.25
    FORVDW:  cpu time      0.0079: real time      0.0080

  FORCE on cell =-STRESS in cart. coord.  units (eV):
  Direction    XX          YY          ZZ          XY          YZ          ZX
  --------------------------------------------------------------------------------------
  Alpha Z     0.02803     0.02803     0.02803
  Ewald      57.31298    86.04722   -21.77747    22.25556     1.90451    -0.23634
  Hartree   174.87543   179.83426   160.60327     3.82932     0.34002    -0.04598
  E(xc)     -36.31333   -36.17129   -36.76832     0.11032     0.01073    -0.00173
  Local    -317.86274  -343.47210  -248.67580   -19.80782    -1.67026     0.19944
  n-local   -30.68000   -30.20754   -30.81191     0.36327     0.00883     0.00587
  augment     6.44646     5.93600     8.08393    -0.39667    -0.03839     0.00615
  Kinetic   145.44365   137.28596   168.48857    -6.32639    -0.55296     0.07215
  Fock        0.00000     0.00000     0.00000     0.00000     0.00000     0.00000
  vdW         0.00263     0.00800    -0.00000     0.00416     0.00012     0.00006
  -------------------------------------------------------------------------------------
  Total      -0.74689    -0.71146    -0.82970     0.03174     0.00261    -0.00039
  in kB      -0.14958    -0.14249    -0.16617     0.00636     0.00052    -0.00008
  external pressure =       -0.15 kB  Pullay stress =        0.00 kB


 VOLUME and BASIS-vectors are now :
 -----------------------------------------------------------------------------
  energy-cutoff  :      400.00
  volume of cell :     8000.00
      direct lattice vectors                 reciprocal lattice vectors
    20.000000000  0.000000000  0.000000000     0.050000000  0.000000000  0.000000000
     0.000000000 20.000000000  0.000000000     0.000000000  0.050000000  0.000000000
     0.000000000  0.000000000 20.000000000     0.000000000  0.000000000  0.050000000

  length of vectors
    20.000000000 20.000000000 20.000000000     0.050000000  0.050000000  0.050000000


 FORCES acting on ions
    electron-ion (+dipol)            ewald-force                    non-local-force                 convergence-correction
 -----------------------------------------------------------------------------------------------
   -.108E+02 0.871E+02 0.178E+01   0.118E+02 -.953E+02 -.195E+01   -.105E+01 0.818E+01 0.168E+00   0.797E-07 -.164E-06 0.920E-07
   -.791E+02 -.382E+02 -.734E-01   0.865E+02 0.418E+02 0.794E-01   -.745E+01 -.356E+01 -.606E-02   0.141E-06 0.125E-06 0.144E-07
   0.552E+02 -.300E+02 -.105E+01   -.983E+02 0.535E+02 0.187E+01   0.432E+02 -.235E+02 -.822E+00   0.596E-06 0.147E-05 0.216E-06
 -----------------------------------------------------------------------------------------------
   -.347E+02 0.189E+02 0.660E+00   0.000E+00 -.711E-14 0.000E+00   0.347E+02 -.189E+02 -.660E+00   0.817E-06 0.143E-05 0.323E-06


 POSITION                                       TOTAL-FORCE (eV/Angst)
 -----------------------------------------------------------------------------------
      9.80755      9.62347      9.98000        -0.001790      0.010689      0.000387
     10.54234     10.97263     10.00000         0.000562     -0.000457     -0.000019
      9.65011     10.58390     10.00000         0.001228     -0.010232     -0.000368
 -----------------------------------------------------------------------------------
    total drift:                               -0.008777      0.004966      0.000222


--------------------------------------------------------------------------------------------------------



  FREE ENERGIE OF THE ION-ELECTRON SYSTEM (eV)
  ---------------------------------------------------
  free  energy   TOTEN  =       -14.17520611 eV

  energy  without entropy=      -14.17520611  energy(sigma->0) =      -14.17520611

 d Force =-0.1656709E-07[-0.155E-04, 0.155E-04]  d Energy =-0.3745359E-07 0.209E-07
 d Force =-0.6515228E-05[ 0.781E-01,-0.781E-01]  d Ewald  =-0.6523513E-05 0.828E-08


--------------------------------------------------------------------------------------------------------


    POTLOK:  cpu time      0.1553: real time      0.1564


--------------------------------------------------------------------------------------------------------


 Finite differences progress:
  Degree of freedom:   3/  9
  Displacement:        2/  2
  Total:               6/ 18
    WAVPRE:  cpu time      0.0098: real time      0.0112
    FEWALD:  cpu time      0.0003: real time      0.0003
    ORTHCH:  cpu time      0.0143: real time      0.0144
     LOOP+:  cpu time      9.7932: real time      9.9059


--------------------------------------- Ionic step        8  -------------------------------------------




--------------------------------------- Iteration      8(   1)  ---------------------------------------


    POTLOK:  cpu time      0.0682: real time      0.0694
    SETDIJ:  cpu time      0.0941: real time      0.0948
     EDDAV:  cpu time      0.2390: real time      0.2413
       DOS:  cpu time      0.0010: real time      0.0010
    CHARGE:  cpu time      0.0640: real time      0.0653
    MIXING:  cpu time      0.0030: real time      0.0030
    --------------------------------------------
      LOOP:  cpu time      0.4694: real time      0.4748

 eigenvalue-minimisations  :    64
 total energy-change (2. order) : 0.7631360E-02  (-0.2801709E-01)
 number of electron       8.0000001 magnetization 
 augmentation part        0.6771459 magnetization 

 Broyden mixing:
  rms(total) = 0.24445E-01    rms(broyden)= 0.24373E-01
  rms(prec ) = 0.25540E-01
  weight for this iteration     100.00

 Free energy of the ion-electron system (eV)
  ---------------------------------------------------
  alpha Z        PSCENC =         0.02803141
  Ewald energy   TEWEN  =       119.90015565
  -Hartree energ DENC   =      -514.42354480
  -exchange      EXHF   =         0.00000000
  -V(xc)+E(xc)   XCENC  =        33.57348820
  PAW double counting   =       561.60943800     -563.35326594
  entropy T*S    EENTRO =        -0.00000000
  eigenvalues    EBANDS =      -108.77035234
  atomic energy  EATOM  =       457.26981990
  Solvation  Ediel_sol  =         0.00000000
  ---------------------------------------------------
  free energy    TOTEN  =       -14.16622991 eV

  energy without entropy =      -14.16622991  energy(sigma->0) =      -14.16622991


--------------------------------------------------------------------------------------------------------




--------------------------------------- Iteration      8(   2)  ---------------------------------------


    POTLOK:  cpu time      0.0679: real time      0.0684
    SETDIJ:  cpu time      0.0895: real time      0.0901
     EDDAV:  cpu time      0.3185: real time      0.3216
       DOS:  cpu time      0.0009: real time      0.0009
    CHARGE:  cpu time      0.0637: real time      0.0649
    MIXING:  cpu time      0.0030: real time      0.0030
    --------------------------------------------
      LOOP:  cpu time      0.5434: real time      0.5489

 eigenvalue-minimisations  :   128
 total energy-change (2. order) : 0.4051615E-03  (-0.6691846E-03)
 number of electron       8.0000001 magnetization 
 augmentation part        0.6792048 magnetization 

 Broyden mixing:
  rms(total) = 0.12669E-01    rms(broyden)= 0.12650E-01
  rms(prec ) = 0.13026E-01
  weight for this iteration     100.00

 eigenvalues of (default mixing * dielectric matrix)
  average eigenvalue GAMMA=   1.3380
  1.3380

 Free energy of the ion-electron system (eV)
  ---------------------------------------------------
  alpha Z        PSCENC =         0.02803141
  Ewald energy   TEWEN  =       119.90015565
  -Hartree energ DENC   =      -514.00351314
  -exchange      EXHF   =         0.00000000
  -V(xc)+E(xc)   XCENC  =        33.55061402
  PAW double counting   =       558.79365011     -560.53001488
  entropy T*S    EENTRO =        -0.00000000
  eigenvalues    EBANDS =      -109.17456782
  atomic energy  EATOM  =       457.26981990
  Solvation  Ediel_sol  =         0.00000000
  ---------------------------------------------------
  free energy    TOTEN  =       -14.16582475 eV

  energy without entropy =      -14.16582475  energy(sigma->0) =      -14.16582475


--------------------------------------------------------------------------------------------------------




--------------------------------------- Iteration      8(   3)  ---------------------------------------


    POTLOK:  cpu time      0.0690: real time      0.0696
    SETDIJ:  cpu time      0.0901: real time      0.0908
     EDDAV:  cpu time      0.1692: real time      0.1710
       DOS:  cpu time      0.0007: real time      0.0008
    CHARGE:  cpu time      0.0639: real time      0.0651
    MIXING:  cpu time      0.0030: real time      0.0036
    --------------------------------------------
      LOOP:  cpu time      0.3959: real time      0.4008

 eigenvalue-minimisations  :    64
 total energy-change (2. order) :-0.4262162E-05  (-0.1164852E-04)
 number of electron       8.0000001 magnetization 
 augmentation part        0.6793984 magnetization 

 Broyden mixing:
  rms(total) = 0.59468E-02    rms(broyden)= 0.59447E-02
  rms(prec ) = 0.61399E-02
  weight for this iteration     100.00

 eigenvalues of (default mixing * dielectric matrix)
  average eigenvalue GAMMA=   1.7271
  1.0659  2.3882

 Free energy of the ion-electron system (eV)
  ---------------------------------------------------
  alpha Z        PSCENC =         0.02803141
  Ewald energy   TEWEN  =       119.90015565
  -Hartree energ DENC   =      -513.96007994
  -exchange      EXHF   =         0.00000000
  -V(xc)+E(xc)   XCENC  =        33.54858074
  PAW double counting   =       557.20283991     -558.93667418
  entropy T*S    EENTRO =        -0.00000000
  eigenvalues    EBANDS =      -109.21850251
  atomic energy  EATOM  =       457.26981990
  Solvation  Ediel_sol  =         0.00000000
  ---------------------------------------------------
  free energy    TOTEN  =       -14.16582901 eV

  energy without entropy =      -14.16582901  energy(sigma->0) =      -14.16582901


--------------------------------------------------------------------------------------------------------




--------------------------------------- Iteration      8(   4)  ---------------------------------------


    POTLOK:  cpu time      0.0628: real time      0.0642
    SETDIJ:  cpu time      0.0895: real time      0.0902
     EDDAV:  cpu time      0.3825: real time      0.3859
       DOS:  cpu time      0.0228: real time      0.0229
    CHARGE:  cpu time      0.0746: real time      0.0759
    MIXING:  cpu time      0.0126: real time      0.0127
    --------------------------------------------
      LOOP:  cpu time      0.6447: real time      0.6517

 eigenvalue-minimisations  :   128
 total energy-change (2. order) :-0.3517009E-04  (-0.6800053E-05)
 number of electron       8.0000001 magnetization 
 augmentation part        0.6793493 magnetization 

 Broyden mixing:
  rms(total) = 0.66660E-03    rms(broyden)= 0.66598E-03
  rms(prec ) = 0.79670E-03
  weight for this iteration     100.00

 eigenvalues of (default mixing * dielectric matrix)
  average eigenvalue GAMMA=   1.7009
  2.4901  1.0814  1.5312

 Free energy of the ion-electron system (eV)
  ---------------------------------------------------
  alpha Z        PSCENC =         0.02803141
  Ewald energy   TEWEN  =       119.90015565
  -Hartree energ DENC   =      -513.96501511
  -exchange      EXHF   =         0.00000000
  -V(xc)+E(xc)   XCENC  =        33.54917706
  PAW double counting   =       555.91256418     -557.64475556
  entropy T*S    EENTRO =        -0.00000000
  eigenvalues    EBANDS =      -109.21584170
  atomic energy  EATOM  =       457.26981990
  Solvation  Ediel_sol  =         0.00000000
  ---------------------------------------------------
  free energy    TOTEN  =       -14.16586418 eV

  energy without entropy =      -14.16586418  energy(sigma->0) =      -14.16586418


--------------------------------------------------------------------------------------------------------




--------------------------------------- Iteration      8(   5)  ---------------------------------------


    POTLOK:  cpu time      0.0637: real time      0.0648
    SETDIJ:  cpu time      0.1421: real time      0.1429
     EDDAV:  cpu time      0.3134: real time      0.3164
       DOS:  cpu time      0.0008: real time      0.0008
    CHARGE:  cpu time      0.0642: real time      0.0654
    MIXING:  cpu time      0.0031: real time      0.0031
    --------------------------------------------
      LOOP:  cpu time      0.5872: real time      0.5934

 eigenvalue-minimisations  :   128
 total energy-change (2. order) :-0.1884315E-04  (-0.6124825E-06)
 number of electron       8.0000001 magnetization 
 augmentation part        0.6793719 magnetization 

 Broyden mixing:
  rms(total) = 0.29760E-03    rms(broyden)= 0.29654E-03
  rms(prec ) = 0.40082E-03
  weight for this iteration     100.00

 eigenvalues of (default mixing * dielectric matrix)
  average eigenvalue GAMMA=   1.6870
  0.9523  1.0913  2.2178  2.4865

 Free energy of the ion-electron system (eV)
  ---------------------------------------------------
  alpha Z        PSCENC =         0.02803141
  Ewald energy   TEWEN  =       119.90015565
  -Hartree energ DENC   =      -513.96640350
  -exchange      EXHF   =         0.00000000
  -V(xc)+E(xc)   XCENC  =        33.54923469
  PAW double counting   =       555.81939176     -557.55143364
  entropy T*S    EENTRO =        -0.00000000
  eigenvalues    EBANDS =      -109.21467930
  atomic energy  EATOM  =       457.26981990
  Solvation  Ediel_sol  =         0.00000000
  ---------------------------------------------------
  free energy    TOTEN  =       -14.16588302 eV

  energy without entropy =      -14.16588302  energy(sigma->0) =      -14.16588302


--------------------------------------------------------------------------------------------------------




--------------------------------------- Iteration      8(   6)  ---------------------------------------


    POTLOK:  cpu time      0.0643: real time      0.0648
    SETDIJ:  cpu time      0.0903: real time      0.0910
     EDDAV:  cpu time      0.2403: real time      0.2428
       DOS:  cpu time      0.0007: real time      0.0007
    CHARGE:  cpu time      0.0633: real time      0.0646
    MIXING:  cpu time      0.0024: real time      0.0024
    --------------------------------------------
      LOOP:  cpu time      0.4613: real time      0.4663

 eigenvalue-minimisations  :    96
 total energy-change (2. order) :-0.1773181E-04  (-0.1590371E-06)
 number of electron       8.0000001 magnetization 
 augmentation part        0.6793726 magnetization 

 Broyden mixing:
  rms(total) = 0.13628E-03    rms(broyden)= 0.13597E-03
  rms(prec ) = 0.23395E-03
  weight for this iteration     100.00

 eigenvalues of (default mixing * dielectric matrix)
  average eigenvalue GAMMA=   1.7559
  2.7637  2.2018  0.9672  1.0767  1.7699

 Free energy of the ion-electron system (eV)
  ---------------------------------------------------
  alpha Z        PSCENC =         0.02803141
  Ewald energy   TEWEN  =       119.90015565
  -Hartree energ DENC   =      -513.96752809
  -exchange      EXHF   =         0.00000000
  -V(xc)+E(xc)   XCENC  =        33.54926113
  PAW double counting   =       555.82058157     -557.55270236
  entropy T*S    EENTRO =        -0.00000000
  eigenvalues    EBANDS =      -109.21351998
  atomic energy  EATOM  =       457.26981990
  Solvation  Ediel_sol  =         0.00000000
  ---------------------------------------------------
  free energy    TOTEN  =       -14.16590075 eV

  energy without entropy =      -14.16590075  energy(sigma->0) =      -14.16590075


--------------------------------------------------------------------------------------------------------




--------------------------------------- Iteration      8(   7)  ---------------------------------------


    POTLOK:  cpu time      0.0655: real time      0.0660
    SETDIJ:  cpu time      0.0903: real time      0.0909
     EDDAV:  cpu time      0.2367: real time      0.2392
       DOS:  cpu time      0.0008: real time      0.0008
    CHARGE:  cpu time      0.0641: real time      0.0653
    MIXING:  cpu time      0.0023: real time      0.0024
    --------------------------------------------
      LOOP:  cpu time      0.4597: real time      0.4646

 eigenvalue-minimisations  :    96
 total energy-change (2. order) :-0.2174414E-04  (-0.1938538E-06)
 number of electron       8.0000001 magnetization 
 augmentation part        0.6793644 magnetization 

 Broyden mixing:
  rms(total) = 0.67546E-04    rms(broyden)= 0.67413E-04
  rms(prec ) = 0.13900E-03
  weight for this iteration     100.00

 eigenvalues of (default mixing * dielectric matrix)
  average eigenvalue GAMMA=   1.8071
  3.1262  2.4756  1.9089  1.0046  1.1637  1.1637

 Free energy of the ion-electron system (eV)
  ---------------------------------------------------
  alpha Z        PSCENC =         0.02803141
  Ewald energy   TEWEN  =       119.90015565
  -Hartree energ DENC   =      -513.96817516
  -exchange      EXHF   =         0.00000000
  -V(xc)+E(xc)   XCENC  =        33.54926743
  PAW double counting   =       555.81939738     -557.55159717
  entropy T*S    EENTRO =        -0.00000000
  eigenvalues    EBANDS =      -109.21282194
  atomic energy  EATOM  =       457.26981990
  Solvation  Ediel_sol  =         0.00000000
  ---------------------------------------------------
  free energy    TOTEN  =       -14.16592250 eV

  energy without entropy =      -14.16592250  energy(sigma->0) =      -14.16592250


--------------------------------------------------------------------------------------------------------




--------------------------------------- Iteration      8(   8)  ---------------------------------------


    POTLOK:  cpu time      0.0639: real time      0.0648
    SETDIJ:  cpu time      0.0891: real time      0.0898
     EDDAV:  cpu time      0.1699: real time      0.1717
       DOS:  cpu time      0.0007: real time      0.0007
    CHARGE:  cpu time      0.0645: real time      0.0657
    MIXING:  cpu time      0.0027: real time      0.0027
    --------------------------------------------
      LOOP:  cpu time      0.3908: real time      0.3953

 eigenvalue-minimisations  :    64
 total energy-change (2. order) :-0.1899905E-04  (-0.1729057E-06)
 number of electron       8.0000001 magnetization 
 augmentation part        0.6793694 magnetization 

 Broyden mixing:
  rms(total) = 0.48639E-04    rms(broyden)= 0.48478E-04
  rms(prec ) = 0.87054E-04
  weight for this iteration     100.00

 eigenvalues of (default mixing * dielectric matrix)
  average eigenvalue GAMMA=   2.0324
  4.5476  2.5843  2.0238  2.0238  1.0158  1.0158  1.0155

 Free energy of the ion-electron system (eV)
  ---------------------------------------------------
  alpha Z        PSCENC =         0.02803141
  Ewald energy   TEWEN  =       119.90015565
  -Hartree energ DENC   =      -513.96732341
  -exchange      EXHF   =         0.00000000
  -V(xc)+E(xc)   XCENC  =        33.54919677
  PAW double counting   =       555.82497001     -557.55717193
  entropy T*S    EENTRO =        -0.00000000
  eigenvalues    EBANDS =      -109.21361990
  atomic energy  EATOM  =       457.26981990
  Solvation  Ediel_sol  =         0.00000000
  ---------------------------------------------------
  free energy    TOTEN  =       -14.16594150 eV

  energy without entropy =      -14.16594150  energy(sigma->0) =      -14.16594150


--------------------------------------------------------------------------------------------------------




--------------------------------------- Iteration      8(   9)  ---------------------------------------


    POTLOK:  cpu time      0.0689: real time      0.0702
    SETDIJ:  cpu time      0.0903: real time      0.0909
     EDDAV:  cpu time      0.1700: real time      0.1719
       DOS:  cpu time      0.0007: real time      0.0007
    CHARGE:  cpu time      0.0635: real time      0.0647
    MIXING:  cpu time      0.0023: real time      0.0024
    --------------------------------------------
      LOOP:  cpu time      0.3957: real time      0.4007

 eigenvalue-minimisations  :    64
 total energy-change (2. order) :-0.1227464E-04  (-0.1064211E-06)
 number of electron       8.0000001 magnetization 
 augmentation part        0.6793652 magnetization 

 Broyden mixing:
  rms(total) = 0.21194E-04    rms(broyden)= 0.20845E-04
  rms(prec ) = 0.42131E-04
  weight for this iteration     100.00

 eigenvalues of (default mixing * dielectric matrix)
  average eigenvalue GAMMA=   2.1289
  5.5122  2.8788  2.4175  1.7701  1.4156  1.0056  1.0157  1.0157

 Free energy of the ion-electron system (eV)
  ---------------------------------------------------
  alpha Z        PSCENC =         0.02803141
  Ewald energy   TEWEN  =       119.90015565
  -Hartree energ DENC   =      -513.96789700
  -exchange      EXHF   =         0.00000000
  -V(xc)+E(xc)   XCENC  =        33.54921696
  PAW double counting   =       555.82509487     -557.55728277
  entropy T*S    EENTRO =        -0.00000000
  eigenvalues    EBANDS =      -109.21309280
  atomic energy  EATOM  =       457.26981990
  Solvation  Ediel_sol  =         0.00000000
  ---------------------------------------------------
  free energy    TOTEN  =       -14.16595377 eV

  energy without entropy =      -14.16595377  energy(sigma->0) =      -14.16595377


--------------------------------------------------------------------------------------------------------




--------------------------------------- Iteration      8(  10)  ---------------------------------------


    POTLOK:  cpu time      0.0652: real time      0.0658
    SETDIJ:  cpu time      0.0899: real time      0.0905
     EDDAV:  cpu time      0.1702: real time      0.1719
       DOS:  cpu time      0.0007: real time      0.0007
    CHARGE:  cpu time      0.0638: real time      0.0650
    MIXING:  cpu time      0.0027: real time      0.0027
    --------------------------------------------
      LOOP:  cpu time      0.3925: real time      0.3966

 eigenvalue-minimisations  :    64
 total energy-change (2. order) :-0.6144438E-05  (-0.2704036E-07)
 number of electron       8.0000001 magnetization 
 augmentation part        0.6793657 magnetization 

 Broyden mixing:
  rms(total) = 0.17213E-04    rms(broyden)= 0.16807E-04
  rms(prec ) = 0.26472E-04
  weight for this iteration     100.00

 eigenvalues of (default mixing * dielectric matrix)
  average eigenvalue GAMMA=   2.3049
  6.6254  3.3121  2.5849  2.2116  1.9251  1.0734  0.9819  1.0149  1.0149

 Free energy of the ion-electron system (eV)
  ---------------------------------------------------
  alpha Z        PSCENC =         0.02803141
  Ewald energy   TEWEN  =       119.90015565
  -Hartree energ DENC   =      -513.96752402
  -exchange      EXHF   =         0.00000000
  -V(xc)+E(xc)   XCENC  =        33.54919607
  PAW double counting   =       555.82272320     -557.55489476
  entropy T*S    EENTRO =        -0.00000000
  eigenvalues    EBANDS =      -109.21346737
  atomic energy  EATOM  =       457.26981990
  Solvation  Ediel_sol  =         0.00000000
  ---------------------------------------------------
  free energy    TOTEN  =       -14.16595992 eV

  energy without entropy =      -14.16595992  energy(sigma->0) =      -14.16595992


--------------------------------------------------------------------------------------------------------




--------------------------------------- Iteration      8(  11)  ---------------------------------------


    POTLOK:  cpu time      0.0657: real time      0.0662
    SETDIJ:  cpu time      0.0902: real time      0.0908
     EDDAV:  cpu time      0.2404: real time      0.2428
       DOS:  cpu time      0.0008: real time      0.0009
    CHARGE:  cpu time      0.0636: real time      0.0648
    MIXING:  cpu time      0.0028: real time      0.0029
    --------------------------------------------
      LOOP:  cpu time      0.4635: real time      0.4683

 eigenvalue-minimisations  :    96
 total energy-change (2. order) :-0.3521814E-05  (-0.9416146E-08)
 number of electron       8.0000001 magnetization 
 augmentation part        0.6793663 magnetization 

 Broyden mixing:
  rms(total) = 0.74024E-05    rms(broyden)= 0.64096E-05
  rms(prec ) = 0.11483E-04
  weight for this iteration     100.00
  WARNING: grid for Broyden might be to small

 eigenvalues of (default mixing * dielectric matrix)
  average eigenvalue GAMMA=   2.3698
  7.4534  3.8721  2.6873  2.2667  1.7892  1.5625  1.0213  1.0213  0.9681  1.0559

 Free energy of the ion-electron system (eV)
  ---------------------------------------------------
  alpha Z        PSCENC =         0.02803141
  Ewald energy   TEWEN  =       119.90015565
  -Hartree energ DENC   =      -513.96732717
  -exchange      EXHF   =         0.00000000
  -V(xc)+E(xc)   XCENC  =        33.54918665
  PAW double counting   =       555.82200495     -557.55418197
  entropy T*S    EENTRO =        -0.00000000
  eigenvalues    EBANDS =      -109.21365286
  atomic energy  EATOM  =       457.26981990
  Solvation  Ediel_sol  =         0.00000000
  ---------------------------------------------------
  free energy    TOTEN  =       -14.16596344 eV

  energy without entropy =      -14.16596344  energy(sigma->0) =      -14.16596344


--------------------------------------------------------------------------------------------------------




--------------------------------------- Iteration      8(  12)  ---------------------------------------


    POTLOK:  cpu time      0.0649: real time      0.0655
    SETDIJ:  cpu time      0.0912: real time      0.0918
     EDDAV:  cpu time      0.3178: real time      0.3210
       DOS:  cpu time      0.0008: real time      0.0008
    CHARGE:  cpu time      0.0644: real time      0.0656
    MIXING:  cpu time      0.0027: real time      0.0028
    --------------------------------------------
      LOOP:  cpu time      0.5419: real time      0.5475

 eigenvalue-minimisations  :   128
 total energy-change (2. order) :-0.1136076E-05  (-0.1395588E-08)
 number of electron       8.0000001 magnetization 
 augmentation part        0.6793654 magnetization 

 Broyden mixing:
  rms(total) = 0.59460E-05    rms(broyden)= 0.46577E-05
  rms(prec ) = 0.73926E-05
  weight for this iteration     100.00
  WARNING: grid for Broyden might be to small

 eigenvalues of (default mixing * dielectric matrix)
  average eigenvalue GAMMA=   2.4975
  8.2934  4.4992  2.9226  2.5393  2.2006  1.8765  1.1012  0.9742  1.0169  1.0243
  1.0243

 Free energy of the ion-electron system (eV)
  ---------------------------------------------------
  alpha Z        PSCENC =         0.02803141
  Ewald energy   TEWEN  =       119.90015565
  -Hartree energ DENC   =      -513.96741203
  -exchange      EXHF   =         0.00000000
  -V(xc)+E(xc)   XCENC  =        33.54919207
  PAW double counting   =       555.82258766     -557.55476786
  entropy T*S    EENTRO =        -0.00000000
  eigenvalues    EBANDS =      -109.21357138
  atomic energy  EATOM  =       457.26981990
  Solvation  Ediel_sol  =         0.00000000
  ---------------------------------------------------
  free energy    TOTEN  =       -14.16596457 eV

  energy without entropy =      -14.16596457  energy(sigma->0) =      -14.16596457


--------------------------------------------------------------------------------------------------------




--------------------------------------- Iteration      8(  13)  ---------------------------------------


    POTLOK:  cpu time      0.0649: real time      0.0661
    SETDIJ:  cpu time      0.0965: real time      0.0972
     EDDAV:  cpu time      0.2408: real time      0.2433
       DOS:  cpu time      0.0007: real time      0.0007
    CHARGE:  cpu time      0.0633: real time      0.0645
    MIXING:  cpu time      0.0031: real time      0.0031
    --------------------------------------------
      LOOP:  cpu time      0.4692: real time      0.4750

 eigenvalue-minimisations  :    96
 total energy-change (2. order) :-0.7831818E-06  (-0.9272174E-09)
 number of electron       8.0000001 magnetization 
 augmentation part        0.6793661 magnetization 

 Broyden mixing:
  rms(total) = 0.47287E-05    rms(broyden)= 0.29520E-05
  rms(prec ) = 0.40926E-05
  weight for this iteration     100.00
  WARNING: grid for Broyden might be to small

 eigenvalues of (default mixing * dielectric matrix)
  average eigenvalue GAMMA=   2.5122
  8.5827  5.0046  3.1579  2.6178  2.2511  1.8403  1.6564  0.9967  0.9967  1.0814
  0.9805  0.9805

 Free energy of the ion-electron system (eV)
  ---------------------------------------------------
  alpha Z        PSCENC =         0.02803141
  Ewald energy   TEWEN  =       119.90015565
  -Hartree energ DENC   =      -513.96729604
  -exchange      EXHF   =         0.00000000
  -V(xc)+E(xc)   XCENC  =        33.54918533
  PAW double counting   =       555.82319285     -557.55537348
  entropy T*S    EENTRO =        -0.00000000
  eigenvalues    EBANDS =      -109.21368098
  atomic energy  EATOM  =       457.26981990
  Solvation  Ediel_sol  =         0.00000000
  ---------------------------------------------------
  free energy    TOTEN  =       -14.16596536 eV

  energy without entropy =      -14.16596536  energy(sigma->0) =      -14.16596536


--------------------------------------------------------------------------------------------------------




--------------------------------------- Iteration      8(  14)  ---------------------------------------


    POTLOK:  cpu time      0.0659: real time      0.0672
    SETDIJ:  cpu time      0.0903: real time      0.0909
     EDDAV:  cpu time      0.2357: real time      0.2384
       DOS:  cpu time      0.0004: real time      0.0010
    CHARGE:  cpu time      0.0641: real time      0.0653
    MIXING:  cpu time      0.0028: real time      0.0028
    --------------------------------------------
      LOOP:  cpu time      0.4593: real time      0.4656

 eigenvalue-minimisations  :    96
 total energy-change (2. order) :-0.3185191E-06  (-0.1854232E-09)
 number of electron       8.0000001 magnetization 
 augmentation part        0.6793657 magnetization 

 Broyden mixing:
  rms(total) = 0.39188E-05    rms(broyden)= 0.13120E-05
  rms(prec ) = 0.20028E-05
  weight for this iteration     100.00
  WARNING: grid for Broyden might be to small

 eigenvalues of (default mixing * dielectric matrix)
  average eigenvalue GAMMA=   2.5503
  8.9687  5.4481  3.5414  2.6831  2.4171  2.1185  1.8755  1.0661  1.0661  1.0014
  1.0014  0.9834  0.9834

 Free energy of the ion-electron system (eV)
  ---------------------------------------------------
  alpha Z        PSCENC =         0.02803141
  Ewald energy   TEWEN  =       119.90015565
  -Hartree energ DENC   =      -513.96737088
  -exchange      EXHF   =         0.00000000
  -V(xc)+E(xc)   XCENC  =        33.54918902
  PAW double counting   =       555.82309468     -557.55527468
  entropy T*S    EENTRO =        -0.00000000
  eigenvalues    EBANDS =      -109.21361078
  atomic energy  EATOM  =       457.26981990
  Solvation  Ediel_sol  =         0.00000000
  ---------------------------------------------------
  free energy    TOTEN  =       -14.16596568 eV

  energy without entropy =      -14.16596568  energy(sigma->0) =      -14.16596568


--------------------------------------------------------------------------------------------------------




--------------------------------------- Iteration      8(  15)  ---------------------------------------


    POTLOK:  cpu time      0.0669: real time      0.0678
    SETDIJ:  cpu time      0.0896: real time      0.0902
     EDDAV:  cpu time      0.1697: real time      0.1716
       DOS:  cpu time      0.0007: real time      0.0007
    CHARGE:  cpu time      0.0641: real time      0.0653
    MIXING:  cpu time      0.0030: real time      0.0030
    --------------------------------------------
      LOOP:  cpu time      0.3939: real time      0.3987

 eigenvalue-minimisations  :    64
 total energy-change (2. order) :-0.1685457E-06  (-0.5381118E-10)
 number of electron       8.0000001 magnetization 
 augmentation part        0.6793658 magnetization 

 Broyden mixing:
  rms(total) = 0.37564E-05    rms(broyden)= 0.69165E-06
  rms(prec ) = 0.10538E-05
  weight for this iteration     100.00
  WARNING: grid for Broyden might be to small

 eigenvalues of (default mixing * dielectric matrix)
  average eigenvalue GAMMA=   2.6566
  9.3953  6.2182  4.0635  2.9657  2.5057  2.1426  2.0444  1.8149  0.9942  0.9942
  1.0683  0.9880  0.9991  0.9991

 Free energy of the ion-electron system (eV)
  ---------------------------------------------------
  alpha Z        PSCENC =         0.02803141
  Ewald energy   TEWEN  =       119.90015565
  -Hartree energ DENC   =      -513.96735419
  -exchange      EXHF   =         0.00000000
  -V(xc)+E(xc)   XCENC  =        33.54918787
  PAW double counting   =       555.82286122     -557.55504018
  entropy T*S    EENTRO =        -0.00000000
  eigenvalues    EBANDS =      -109.21362753
  atomic energy  EATOM  =       457.26981990
  Solvation  Ediel_sol  =         0.00000000
  ---------------------------------------------------
  free energy    TOTEN  =       -14.16596584 eV

  energy without entropy =      -14.16596584  energy(sigma->0) =      -14.16596584


--------------------------------------------------------------------------------------------------------




--------------------------------------- Iteration      8(  16)  ---------------------------------------


    POTLOK:  cpu time      0.0790: real time      0.0800
    SETDIJ:  cpu time      0.0903: real time      0.0909
     EDDAV:  cpu time      0.1678: real time      0.1696
       DOS:  cpu time      0.0007: real time      0.0007
    CHARGE:  cpu time      0.0638: real time      0.0650
    MIXING:  cpu time      0.0032: real time      0.0033
    --------------------------------------------
      LOOP:  cpu time      0.4049: real time      0.4096

 eigenvalue-minimisations  :    64
 total energy-change (2. order) :-0.1027843E-06  (-0.2541611E-10)
 number of electron       8.0000001 magnetization 
 augmentation part        0.6793658 magnetization 

 Broyden mixing:
  rms(total) = 0.37023E-05    rms(broyden)= 0.27275E-06
  rms(prec ) = 0.43414E-06
  weight for this iteration     100.00
  WARNING: grid for Broyden might be to small

 eigenvalues of (default mixing * dielectric matrix)
  average eigenvalue GAMMA=   2.6568
  9.5467  6.5066  4.4121  3.0116  2.6919  2.3786  1.9659  1.9101  1.3967  1.0004
  1.0004  1.0858  0.9911  0.9770  0.9770

 Free energy of the ion-electron system (eV)
  ---------------------------------------------------
  alpha Z        PSCENC =         0.02803141
  Ewald energy   TEWEN  =       119.90015565
  -Hartree energ DENC   =      -513.96735323
  -exchange      EXHF   =         0.00000000
  -V(xc)+E(xc)   XCENC  =        33.54918783
  PAW double counting   =       555.82289977     -557.55507939
  entropy T*S    EENTRO =        -0.00000000
  eigenvalues    EBANDS =      -109.21362790
  atomic energy  EATOM  =       457.26981990
  Solvation  Ediel_sol  =         0.00000000
  ---------------------------------------------------
  free energy    TOTEN  =       -14.16596595 eV

  energy without entropy =      -14.16596595  energy(sigma->0) =      -14.16596595


--------------------------------------------------------------------------------------------------------




--------------------------------------- Iteration      8(  17)  ---------------------------------------


    POTLOK:  cpu time      0.0661: real time      0.0666
    SETDIJ:  cpu time      0.0900: real time      0.0906
     EDDAV:  cpu time      0.1679: real time      0.1697
       DOS:  cpu time      0.0009: real time      0.0009
    CHARGE:  cpu time      0.0641: real time      0.0654
    MIXING:  cpu time      0.0032: real time      0.0032
    --------------------------------------------
      LOOP:  cpu time      0.3923: real time      0.3965

 eigenvalue-minimisations  :    64
 total energy-change (2. order) :-0.3081675E-07  (-0.1703171E-10)
 number of electron       8.0000001 magnetization 
 augmentation part        0.6793658 magnetization 

 Broyden mixing:
  rms(total) = 0.36977E-05    rms(broyden)= 0.20160E-06
  rms(prec ) = 0.27311E-06
  weight for this iteration     100.00
  WARNING: grid for Broyden might be to small

 eigenvalues of (default mixing * dielectric matrix)
  average eigenvalue GAMMA=   2.6784
  9.7164  6.9599  4.6435  3.3735  2.7034  2.3871  2.0784  2.0784  1.8154  0.9943
  0.9943  1.0655  1.0595  1.0595  0.9627  0.9627

 Free energy of the ion-electron system (eV)
  ---------------------------------------------------
  alpha Z        PSCENC =         0.02803141
  Ewald energy   TEWEN  =       119.90015565
  -Hartree energ DENC   =      -513.96735540
  -exchange      EXHF   =         0.00000000
  -V(xc)+E(xc)   XCENC  =        33.54918799
  PAW double counting   =       555.82291197     -557.55509175
  entropy T*S    EENTRO =        -0.00000000
  eigenvalues    EBANDS =      -109.21362575
  atomic energy  EATOM  =       457.26981990
  Solvation  Ediel_sol  =         0.00000000
  ---------------------------------------------------
  free energy    TOTEN  =       -14.16596598 eV

  energy without entropy =      -14.16596598  energy(sigma->0) =      -14.16596598


--------------------------------------------------------------------------------------------------------




--------------------------------------- Iteration      8(  18)  ---------------------------------------


    POTLOK:  cpu time      0.0660: real time      0.0666
    SETDIJ:  cpu time      0.0900: real time      0.0906
     EDDAV:  cpu time      0.3153: real time      0.3185
       DOS:  cpu time      0.0029: real time      0.0029
    CHARGE:  cpu time      0.0638: real time      0.0651
    MIXING:  cpu time      0.0032: real time      0.0033
    --------------------------------------------
      LOOP:  cpu time      0.5412: real time      0.5470

 eigenvalue-minimisations  :   128
 total energy-change (2. order) :-0.1056810E-07  (-0.1656097E-10)
 number of electron       8.0000001 magnetization 
 augmentation part        0.6793658 magnetization 

 Broyden mixing:
  rms(total) = 0.36931E-05    rms(broyden)= 0.84270E-07
  rms(prec ) = 0.12889E-06
  weight for this iteration     100.00
  WARNING: grid for Broyden might be to small

 eigenvalues of (default mixing * dielectric matrix)
  average eigenvalue GAMMA=   2.7131
  9.8673  7.2366  5.0982  3.7367  2.9303  2.5469  2.3360  1.8778  1.8778  1.5494
  0.9923  0.9923  1.0858  1.0166  1.0166  0.9815  0.9815

 Free energy of the ion-electron system (eV)
  ---------------------------------------------------
  alpha Z        PSCENC =         0.02803141
  Ewald energy   TEWEN  =       119.90015565
  -Hartree energ DENC   =      -513.96735213
  -exchange      EXHF   =         0.00000000
  -V(xc)+E(xc)   XCENC  =        33.54918783
  PAW double counting   =       555.82290851     -557.55508811
  entropy T*S    EENTRO =        -0.00000000
  eigenvalues    EBANDS =      -109.21362905
  atomic energy  EATOM  =       457.26981990
  Solvation  Ediel_sol  =         0.00000000
  ---------------------------------------------------
  free energy    TOTEN  =       -14.16596599 eV

  energy without entropy =      -14.16596599  energy(sigma->0) =      -14.16596599


--------------------------------------------------------------------------------------------------------




--------------------------------------- Iteration      8(  19)  ---------------------------------------


    POTLOK:  cpu time      0.0665: real time      0.0670
    SETDIJ:  cpu time      0.0902: real time      0.0908
     EDDAV:  cpu time      0.1685: real time      0.1702
       DOS:  cpu time      0.0006: real time      0.0006
    --------------------------------------------
      LOOP:  cpu time      0.3257: real time      0.3286

 eigenvalue-minimisations  :    64
 total energy-change (2. order) :-0.3164928E-08  (-0.1272227E-10)
 number of electron       8.0000001 magnetization 
 augmentation part        0.6793658 magnetization 

 Free energy of the ion-electron system (eV)
  ---------------------------------------------------
  alpha Z        PSCENC =         0.02803141
  Ewald energy   TEWEN  =       119.90015565
  -Hartree energ DENC   =      -513.96735202
  -exchange      EXHF   =         0.00000000
  -V(xc)+E(xc)   XCENC  =        33.54918783
  PAW double counting   =       555.82291209     -557.55509169
  entropy T*S    EENTRO =        -0.00000000
  eigenvalues    EBANDS =      -109.21362916
  atomic energy  EATOM  =       457.26981990
  Solvation  Ediel_sol  =         0.00000000
  ---------------------------------------------------
  free energy    TOTEN  =       -14.16596599 eV

  energy without entropy =      -14.16596599  energy(sigma->0) =      -14.16596599


--------------------------------------------------------------------------------------------------------




 average (electrostatic) potential at core
  the test charge radii are     0.5201  0.7215
  (the norm of the test charge is              1.0000)
       1 -44.8320       2 -44.6272       3 -80.7473



 E-fermi :  -7.0931     XC(G=0):  -0.1050     alpha+bet : -0.0163

 val. band max:       -7.1546070330   @ k =   0.0000   0.0000   0.0000
 cond. band min:      -1.0977502702   @ k =   0.0000   0.0000   0.0000
 fundamental gap:      6.0568567628
 Fermi energy:        -7.0930906581

 k-point     1 :       0.0000    0.0000    0.0000
  band No.  band energies     occupation 
      1     -25.2426      2.00000
      2     -12.9367      2.00000
      3      -9.2730      2.00000
      4      -7.1546      2.00000
      5      -1.0978      0.00000
      6       0.0105      0.00000
      7       0.1894      0.00000
      8       0.2965      0.00000
      9       0.3115      0.00000
     10       0.3412      0.00000
     11       0.3479      0.00000
     12       0.4604      0.00000
     13       0.4924      0.00000
     14       0.6007      0.00000
     15       0.6217      0.00000
     16       0.7073      0.00000
     17       0.7077      0.00000
     18       0.7132      0.00000
     19       0.7173      0.00000
     20       0.7215      0.00000
     21       0.7298      0.00000
     22       0.7313      0.00000
     23       0.7369      0.00000
     24       0.9303      0.00000
     25       0.9374      0.00000
     26       1.0198      0.00000
     27       1.0340      0.00000
     28       1.0807      0.00000
     29       1.0849      0.00000
     30       1.0881      0.00000
     31       1.1044      0.00000
     32       1.2466      0.00000


--------------------------------------------------------------------------------------------------------


 soft charge-density along one line, spin component           1
         0         1         2         3         4         5         6         7         8         9
 total charge-density along one line

 pseudopotential strength for first ion, spin component:           1
 -2.379  -4.109  -0.023   0.000   0.002
 -4.109  -7.012  -0.042   0.000   0.005
 -0.023  -0.042  -0.283  -0.000  -0.005
  0.000   0.000  -0.000  -0.327  -0.000
  0.002   0.005  -0.005  -0.000  -0.325
 total augmentation occupancy for first ion, spin component:           1
  3.968  -0.866   0.708  -0.000  -0.104
 -0.866   0.237  -0.151   0.000   0.027
  0.708  -0.151   0.127  -0.000  -0.017
 -0.000   0.000  -0.000   0.038  -0.000
 -0.104   0.027  -0.017  -0.000   0.027


------------------------ aborting loop because EDIFF is reached ----------------------------------------


    CHARGE:  cpu time      0.0636: real time      0.0644
    FORLOC:  cpu time      0.0035: real time      0.0035
    FORNL :  cpu time      0.2459: real time      0.2488
    STRESS:  cpu time      0.9264: real time      0.9366
    FORCOR:  cpu time      0.0555: real time      0.0560
    FORHAR:  cpu time      0.0161: real time      0.0163
    MIXING:  cpu time      0.0028: real time      0.0028
    OFIELD:  cpu time      0.0000: real time      0.0000

 ---------------------------------------------------------------------------------------------

         DFTD3 V3.0 Rev 1        
 Edisp (eV)   -0.00142

 E6    (eV) :    -0.0013
 E8    (eV) :    -0.0001
 % E8        :  5.26
    FORVDW:  cpu time      0.0079: real time      0.0081

  FORCE on cell =-STRESS in cart. coord.  units (eV):
  Direction    XX          YY          ZZ          XY          YZ          ZX
  --------------------------------------------------------------------------------------
  Alpha Z     0.02803     0.02803     0.02803
  Ewald      56.52112    85.19603   -21.81701    21.19429    -0.00009     0.00018
  Hartree   174.60814   179.24822   160.11099     3.79852    -0.00002     0.00003
  E(xc)     -36.23797   -36.10407   -36.69873     0.10810    -0.00000     0.00000
  Local    -317.21640  -342.17076  -248.03584   -19.18028     0.00008    -0.00016
  n-local   -30.36758   -30.06901   -30.69839     0.43721     0.00000     0.00000
  augment     6.41427     5.92187     8.05958    -0.38355     0.00000    -0.00000
  Kinetic   144.81417   137.14014   168.22121    -6.24224     0.00002    -0.00006
  Fock        0.00000     0.00000     0.00000     0.00000     0.00000     0.00000
  vdW         0.00291     0.00828    -0.00000     0.00445     0.00000     0.00000
  -------------------------------------------------------------------------------------
  Total      -1.43329    -0.80127    -0.83016    -0.26350     0.00000     0.00000
  in kB      -0.28705    -0.16047    -0.16626    -0.05277     0.00000     0.00000
  external pressure =       -0.20 kB  Pullay stress =        0.00 kB


 VOLUME and BASIS-vectors are now :
 -----------------------------------------------------------------------------
  energy-cutoff  :      400.00
  volume of cell :     8000.00
      direct lattice vectors                 reciprocal lattice vectors
    20.000000000  0.000000000  0.000000000     0.050000000  0.000000000  0.000000000
     0.000000000 20.000000000  0.000000000     0.000000000  0.050000000  0.000000000
     0.000000000  0.000000000 20.000000000     0.000000000  0.000000000  0.050000000

  length of vectors
    20.000000000 20.000000000 20.000000000     0.050000000  0.050000000  0.050000000


 FORCES acting on ions
    electron-ion (+dipol)            ewald-force                    non-local-force                 convergence-correction
 -----------------------------------------------------------------------------------------------
   -.108E+02 0.870E+02 -.149E-03   0.118E+02 -.952E+02 0.163E-03   -.106E+01 0.819E+01 -.130E-04   0.320E-07 -.145E-06 -.561E-07
   -.775E+02 -.367E+02 -.157E-03   0.837E+02 0.397E+02 0.170E-03   -.699E+01 -.328E+01 -.147E-04   0.170E-06 0.944E-07 -.107E-07
   0.537E+02 -.312E+02 0.191E-03   -.955E+02 0.555E+02 -.334E-03   0.426E+02 -.240E+02 0.145E-03   -.426E-06 -.530E-06 0.141E-06
 -----------------------------------------------------------------------------------------------
   -.346E+02 0.191E+02 -.116E-03   0.000E+00 0.000E+00 0.401E-17   0.346E+02 -.191E+02 0.118E-03   -.225E-06 -.580E-06 0.742E-07


 POSITION                                       TOTAL-FORCE (eV/Angst)
 -----------------------------------------------------------------------------------
      9.80755      9.62347     10.00000        -0.000073     -0.025384      0.000000
     10.56234     10.97263     10.00000        -0.761726     -0.320832     -0.000002
      9.65011     10.58390     10.00000         0.761799      0.346216      0.000002
 -----------------------------------------------------------------------------------
    total drift:                               -0.008752      0.005111      0.000002


--------------------------------------------------------------------------------------------------------



  FREE ENERGIE OF THE ION-ELECTRON SYSTEM (eV)
  ---------------------------------------------------
  free  energy   TOTEN  =       -14.16738191 eV

  energy  without entropy=      -14.16738191  energy(sigma->0) =      -14.16738191

 d Force =-0.7607764E-02[-0.152E-01, 0.190E-04]  d Energy =-0.7824201E-02 0.216E-03
 d Force = 0.1682734E+01[ 0.167E+01, 0.169E+01]  d Ewald  = 0.1682532E+01 0.201E-03


--------------------------------------------------------------------------------------------------------


    POTLOK:  cpu time      0.1559: real time      0.1572


--------------------------------------------------------------------------------------------------------


 Finite differences progress:
  Degree of freedom:   4/  9
  Displacement:        1/  2
  Total:               7/ 18
    WAVPRE:  cpu time      0.0100: real time      0.0114
    FEWALD:  cpu time      0.0003: real time      0.0003
    ORTHCH:  cpu time      0.0226: real time      0.0228
     LOOP+:  cpu time     10.3375: real time     10.4540


--------------------------------------- Ionic step        9  -------------------------------------------




--------------------------------------- Iteration      9(   1)  ---------------------------------------


    POTLOK:  cpu time      0.0628: real time      0.0639
    SETDIJ:  cpu time      0.0903: real time      0.0910
     EDDAV:  cpu time      0.1694: real time      0.1713
       DOS:  cpu time      0.0007: real time      0.0008
    CHARGE:  cpu time      0.0631: real time      0.0643
    MIXING:  cpu time      0.0029: real time      0.0029
    --------------------------------------------
      LOOP:  cpu time      0.3893: real time      0.3941

 eigenvalue-minimisations  :    64
 total energy-change (2. order) :-0.2034729E-02  (-0.6441198E-01)
 number of electron       8.0000001 magnetization 
 augmentation part        0.6930966 magnetization 

 Broyden mixing:
  rms(total) = 0.44624E-01    rms(broyden)= 0.44544E-01
  rms(prec ) = 0.46912E-01
  weight for this iteration     100.00

 Free energy of the ion-electron system (eV)
  ---------------------------------------------------
  alpha Z        PSCENC =         0.02803141
  Ewald energy   TEWEN  =       123.36082655
  -Hartree energ DENC   =      -515.76677436
  -exchange      EXHF   =         0.00000000
  -V(xc)+E(xc)   XCENC  =        33.63690651
  PAW double counting   =       555.82291201     -557.55509164
  entropy T*S    EENTRO =        -0.00000000
  eigenvalues    EBANDS =      -110.96463109
  atomic energy  EATOM  =       457.26981990
  Solvation  Ediel_sol  =         0.00000000
  ---------------------------------------------------
  free energy    TOTEN  =       -14.16800072 eV

  energy without entropy =      -14.16800072  energy(sigma->0) =      -14.16800072


--------------------------------------------------------------------------------------------------------




--------------------------------------- Iteration      9(   2)  ---------------------------------------


    POTLOK:  cpu time      0.0657: real time      0.0662
    SETDIJ:  cpu time      0.0899: real time      0.0906
     EDDAV:  cpu time      0.3214: real time      0.3245
       DOS:  cpu time      0.0011: real time      0.0011
    CHARGE:  cpu time      0.0720: real time      0.0733
    MIXING:  cpu time      0.0029: real time      0.0030
    --------------------------------------------
      LOOP:  cpu time      0.5531: real time      0.5587

 eigenvalue-minimisations  :   128
 total energy-change (2. order) : 0.2499809E-02  (-0.1844459E-02)
 number of electron       8.0000001 magnetization 
 augmentation part        0.6886993 magnetization 

 Broyden mixing:
  rms(total) = 0.21971E-01    rms(broyden)= 0.21937E-01
  rms(prec ) = 0.22555E-01
  weight for this iteration     100.00

 eigenvalues of (default mixing * dielectric matrix)
  average eigenvalue GAMMA=   1.3016
  1.3016

 Free energy of the ion-electron system (eV)
  ---------------------------------------------------
  alpha Z        PSCENC =         0.02803141
  Ewald energy   TEWEN  =       123.36082655
  -Hartree energ DENC   =      -516.61865527
  -exchange      EXHF   =         0.00000000
  -V(xc)+E(xc)   XCENC  =        33.68262935
  PAW double counting   =       561.68864921     -563.43720407
  entropy T*S    EENTRO =        -0.00000000
  eigenvalues    EBANDS =      -110.13959799
  atomic energy  EATOM  =       457.26981990
  Solvation  Ediel_sol  =         0.00000000
  ---------------------------------------------------
  free energy    TOTEN  =       -14.16550091 eV

  energy without entropy =      -14.16550091  energy(sigma->0) =      -14.16550091


--------------------------------------------------------------------------------------------------------




--------------------------------------- Iteration      9(   3)  ---------------------------------------


    POTLOK:  cpu time      0.0662: real time      0.0667
    SETDIJ:  cpu time      0.0898: real time      0.0905
     EDDAV:  cpu time      0.1685: real time      0.1703
       DOS:  cpu time      0.0008: real time      0.0008
    CHARGE:  cpu time      0.0646: real time      0.0658
    MIXING:  cpu time      0.0020: real time      0.0020
    --------------------------------------------
      LOOP:  cpu time      0.3918: real time      0.3961

 eigenvalue-minimisations  :    64
 total energy-change (2. order) : 0.1646107E-03  (-0.4401120E-04)
 number of electron       8.0000001 magnetization 
 augmentation part        0.6882712 magnetization 

 Broyden mixing:
  rms(total) = 0.10341E-01    rms(broyden)= 0.10337E-01
  rms(prec ) = 0.10618E-01
  weight for this iteration     100.00

 eigenvalues of (default mixing * dielectric matrix)
  average eigenvalue GAMMA=   1.7017
  1.0843  2.3192

 Free energy of the ion-electron system (eV)
  ---------------------------------------------------
  alpha Z        PSCENC =         0.02803141
  Ewald energy   TEWEN  =       123.36082655
  -Hartree energ DENC   =      -516.72398571
  -exchange      EXHF   =         0.00000000
  -V(xc)+E(xc)   XCENC  =        33.68765309
  PAW double counting   =       564.90758655     -566.66097724
  entropy T*S    EENTRO =        -0.00000000
  eigenvalues    EBANDS =      -110.03429085
  atomic energy  EATOM  =       457.26981990
  Solvation  Ediel_sol  =         0.00000000
  ---------------------------------------------------
  free energy    TOTEN  =       -14.16533630 eV

  energy without entropy =      -14.16533630  energy(sigma->0) =      -14.16533630


--------------------------------------------------------------------------------------------------------




--------------------------------------- Iteration      9(   4)  ---------------------------------------


    POTLOK:  cpu time      0.0652: real time      0.0657
    SETDIJ:  cpu time      0.0907: real time      0.0914
     EDDAV:  cpu time      0.3147: real time      0.3180
       DOS:  cpu time      0.0009: real time      0.0009
    CHARGE:  cpu time      0.0639: real time      0.0652
    MIXING:  cpu time      0.0022: real time      0.0022
    --------------------------------------------
      LOOP:  cpu time      0.5376: real time      0.5433

 eigenvalue-minimisations  :   128
 total energy-change (2. order) :-0.9054943E-04  (-0.2095438E-04)
 number of electron       8.0000001 magnetization 
 augmentation part        0.6883579 magnetization 

 Broyden mixing:
  rms(total) = 0.10127E-02    rms(broyden)= 0.10119E-02
  rms(prec ) = 0.11260E-02
  weight for this iteration     100.00

 eigenvalues of (default mixing * dielectric matrix)
  average eigenvalue GAMMA=   1.7279
  1.0902  2.4941  1.5993

 Free energy of the ion-electron system (eV)
  ---------------------------------------------------
  alpha Z        PSCENC =         0.02803141
  Ewald energy   TEWEN  =       123.36082655
  -Hartree energ DENC   =      -516.72565815
  -exchange      EXHF   =         0.00000000
  -V(xc)+E(xc)   XCENC  =        33.68716365
  PAW double counting   =       567.60154633     -569.35802935
  entropy T*S    EENTRO =        -0.00000000
  eigenvalues    EBANDS =      -110.02912719
  atomic energy  EATOM  =       457.26981990
  Solvation  Ediel_sol  =         0.00000000
  ---------------------------------------------------
  free energy    TOTEN  =       -14.16542685 eV

  energy without entropy =      -14.16542685  energy(sigma->0) =      -14.16542685


--------------------------------------------------------------------------------------------------------




--------------------------------------- Iteration      9(   5)  ---------------------------------------


    POTLOK:  cpu time      0.0655: real time      0.0660
    SETDIJ:  cpu time      0.0897: real time      0.0903
     EDDAV:  cpu time      1.0404: real time      1.0468
       DOS:  cpu time      0.0009: real time      0.0009
    CHARGE:  cpu time      0.0648: real time      0.0660
    MIXING:  cpu time      0.0025: real time      0.0025
    --------------------------------------------
      LOOP:  cpu time      1.2638: real time      1.2726

 eigenvalue-minimisations  :   128
 total energy-change (2. order) :-0.3679504E-04  (-0.2141144E-05)
 number of electron       8.0000001 magnetization 
 augmentation part        0.6883257 magnetization 

 Broyden mixing:
  rms(total) = 0.44334E-03    rms(broyden)= 0.44096E-03
  rms(prec ) = 0.50591E-03
  weight for this iteration     100.00

 eigenvalues of (default mixing * dielectric matrix)
  average eigenvalue GAMMA=   1.6185
  0.9404  1.1226  2.4174  1.9934

 Free energy of the ion-electron system (eV)
  ---------------------------------------------------
  alpha Z        PSCENC =         0.02803141
  Ewald energy   TEWEN  =       123.36082655
  -Hartree energ DENC   =      -516.72118604
  -exchange      EXHF   =         0.00000000
  -V(xc)+E(xc)   XCENC  =        33.68686914
  PAW double counting   =       567.88842649     -569.64534420
  entropy T*S    EENTRO =        -0.00000000
  eigenvalues    EBANDS =      -110.03290689
  atomic energy  EATOM  =       457.26981990
  Solvation  Ediel_sol  =         0.00000000
  ---------------------------------------------------
  free energy    TOTEN  =       -14.16546364 eV

  energy without entropy =      -14.16546364  energy(sigma->0) =      -14.16546364


--------------------------------------------------------------------------------------------------------




--------------------------------------- Iteration      9(   6)  ---------------------------------------


    POTLOK:  cpu time      0.0637: real time      0.0661
    SETDIJ:  cpu time      0.0901: real time      0.0908
     EDDAV:  cpu time      0.3212: real time      0.3244
       DOS:  cpu time      0.0008: real time      0.0008
    CHARGE:  cpu time      0.0637: real time      0.0650
    MIXING:  cpu time      0.0024: real time      0.0024
    --------------------------------------------
      LOOP:  cpu time      0.5420: real time      0.5495

 eigenvalue-minimisations  :   128
 total energy-change (2. order) :-0.1862780E-04  (-0.1803486E-06)
 number of electron       8.0000001 magnetization 
 augmentation part        0.6883111 magnetization 

 Broyden mixing:
  rms(total) = 0.19544E-03    rms(broyden)= 0.19490E-03
  rms(prec ) = 0.26587E-03
  weight for this iteration     100.00

 eigenvalues of (default mixing * dielectric matrix)
  average eigenvalue GAMMA=   1.7590
  2.6217  2.3584  0.9532  1.1155  1.7462

 Free energy of the ion-electron system (eV)
  ---------------------------------------------------
  alpha Z        PSCENC =         0.02803141
  Ewald energy   TEWEN  =       123.36082655
  -Hartree energ DENC   =      -516.72084497
  -exchange      EXHF   =         0.00000000
  -V(xc)+E(xc)   XCENC  =        33.68686518
  PAW double counting   =       567.87015234     -569.62693780
  entropy T*S    EENTRO =        -0.00000000
  eigenvalues    EBANDS =      -110.03339488
  atomic energy  EATOM  =       457.26981990
  Solvation  Ediel_sol  =         0.00000000
  ---------------------------------------------------
  free energy    TOTEN  =       -14.16548227 eV

  energy without entropy =      -14.16548227  energy(sigma->0) =      -14.16548227


--------------------------------------------------------------------------------------------------------




--------------------------------------- Iteration      9(   7)  ---------------------------------------


    POTLOK:  cpu time      0.0650: real time      0.0656
    SETDIJ:  cpu time      0.0900: real time      0.0907
     EDDAV:  cpu time      0.2360: real time      0.2384
       DOS:  cpu time      0.0008: real time      0.0013
    CHARGE:  cpu time      0.0640: real time      0.0647
    MIXING:  cpu time      0.0023: real time      0.0024
    --------------------------------------------
      LOOP:  cpu time      0.4581: real time      0.4630

 eigenvalue-minimisations  :    96
 total energy-change (2. order) :-0.2191219E-04  (-0.2141248E-06)
 number of electron       8.0000001 magnetization 
 augmentation part        0.6883262 magnetization 

 Broyden mixing:
  rms(total) = 0.74046E-04    rms(broyden)= 0.73916E-04
  rms(prec ) = 0.13020E-03
  weight for this iteration     100.00

 eigenvalues of (default mixing * dielectric matrix)
  average eigenvalue GAMMA=   1.7077
  2.7864  2.3301  1.8759  0.9960  1.1288  1.1288

 Free energy of the ion-electron system (eV)
  ---------------------------------------------------
  alpha Z        PSCENC =         0.02803141
  Ewald energy   TEWEN  =       123.36082655
  -Hartree energ DENC   =      -516.71774523
  -exchange      EXHF   =         0.00000000
  -V(xc)+E(xc)   XCENC  =        33.68670777
  PAW double counting   =       567.87671723     -569.63332291
  entropy T*S    EENTRO =        -0.00000000
  eigenvalues    EBANDS =      -110.03653890
  atomic energy  EATOM  =       457.26981990
  Solvation  Ediel_sol  =         0.00000000
  ---------------------------------------------------
  free energy    TOTEN  =       -14.16550418 eV

  energy without entropy =      -14.16550418  energy(sigma->0) =      -14.16550418


--------------------------------------------------------------------------------------------------------




--------------------------------------- Iteration      9(   8)  ---------------------------------------


    POTLOK:  cpu time      0.0640: real time      0.0651
    SETDIJ:  cpu time      0.0902: real time      0.0908
     EDDAV:  cpu time      0.2356: real time      0.2381
       DOS:  cpu time      0.0007: real time      0.0007
    CHARGE:  cpu time      0.0654: real time      0.0667
    MIXING:  cpu time      0.0029: real time      0.0029
    --------------------------------------------
      LOOP:  cpu time      0.4589: real time      0.4643

 eigenvalue-minimisations  :    96
 total energy-change (2. order) :-0.1143675E-04  (-0.6244543E-07)
 number of electron       8.0000001 magnetization 
 augmentation part        0.6883160 magnetization 

 Broyden mixing:
  rms(total) = 0.54698E-04    rms(broyden)= 0.54546E-04
  rms(prec ) = 0.95491E-04
  weight for this iteration     100.00

 eigenvalues of (default mixing * dielectric matrix)
  average eigenvalue GAMMA=   1.9151
  3.9163  2.4949  1.9905  1.9905  0.9922  0.9922  1.0292

 Free energy of the ion-electron system (eV)
  ---------------------------------------------------
  alpha Z        PSCENC =         0.02803141
  Ewald energy   TEWEN  =       123.36082655
  -Hartree energ DENC   =      -516.71890382
  -exchange      EXHF   =         0.00000000
  -V(xc)+E(xc)   XCENC  =        33.68677730
  PAW double counting   =       567.88036968     -569.63699903
  entropy T*S    EENTRO =        -0.00000000
  eigenvalues    EBANDS =      -110.03543761
  atomic energy  EATOM  =       457.26981990
  Solvation  Ediel_sol  =         0.00000000
  ---------------------------------------------------
  free energy    TOTEN  =       -14.16551562 eV

  energy without entropy =      -14.16551562  energy(sigma->0) =      -14.16551562


--------------------------------------------------------------------------------------------------------




--------------------------------------- Iteration      9(   9)  ---------------------------------------


    POTLOK:  cpu time      0.0655: real time      0.0667
    SETDIJ:  cpu time      0.0902: real time      0.0908
     EDDAV:  cpu time      0.1695: real time      0.1713
       DOS:  cpu time      0.0008: real time      0.0008
    CHARGE:  cpu time      0.0633: real time      0.0646
    MIXING:  cpu time      0.0030: real time      0.0031
    --------------------------------------------
      LOOP:  cpu time      0.3923: real time      0.3972

 eigenvalue-minimisations  :    64
 total energy-change (2. order) :-0.1426945E-04  (-0.1540692E-06)
 number of electron       8.0000001 magnetization 
 augmentation part        0.6883247 magnetization 

 Broyden mixing:
  rms(total) = 0.23416E-04    rms(broyden)= 0.23096E-04
  rms(prec ) = 0.42718E-04
  weight for this iteration     100.00

 eigenvalues of (default mixing * dielectric matrix)
  average eigenvalue GAMMA=   2.0044
  4.9543  2.6882  2.3388  1.8697  1.1946  0.9721  1.0086  1.0086

 Free energy of the ion-electron system (eV)
  ---------------------------------------------------
  alpha Z        PSCENC =         0.02803141
  Ewald energy   TEWEN  =       123.36082655
  -Hartree energ DENC   =      -516.71696385
  -exchange      EXHF   =         0.00000000
  -V(xc)+E(xc)   XCENC  =        33.68667980
  PAW double counting   =       567.87622605     -569.63285550
  entropy T*S    EENTRO =        -0.00000000
  eigenvalues    EBANDS =      -110.03729425
  atomic energy  EATOM  =       457.26981990
  Solvation  Ediel_sol  =         0.00000000
  ---------------------------------------------------
  free energy    TOTEN  =       -14.16552989 eV

  energy without entropy =      -14.16552989  energy(sigma->0) =      -14.16552989


--------------------------------------------------------------------------------------------------------




--------------------------------------- Iteration      9(  10)  ---------------------------------------


    POTLOK:  cpu time      0.0656: real time      0.0662
    SETDIJ:  cpu time      0.0896: real time      0.0903
     EDDAV:  cpu time      0.2374: real time      0.2399
       DOS:  cpu time      0.0008: real time      0.0008
    CHARGE:  cpu time      0.0654: real time      0.0667
    MIXING:  cpu time      0.0028: real time      0.0028
    --------------------------------------------
      LOOP:  cpu time      0.4616: real time      0.4666

 eigenvalue-minimisations  :    96
 total energy-change (2. order) :-0.4849838E-05  (-0.2005851E-07)
 number of electron       8.0000001 magnetization 
 augmentation part        0.6883234 magnetization 

 Broyden mixing:
  rms(total) = 0.17717E-04    rms(broyden)= 0.17321E-04
  rms(prec ) = 0.27254E-04
  weight for this iteration     100.00

 eigenvalues of (default mixing * dielectric matrix)
  average eigenvalue GAMMA=   2.1632
  5.9394  3.1144  2.4231  2.1101  1.9243  1.0604  0.9445  0.9761  0.9761

 Free energy of the ion-electron system (eV)
  ---------------------------------------------------
  alpha Z        PSCENC =         0.02803141
  Ewald energy   TEWEN  =       123.36082655
  -Hartree energ DENC   =      -516.71735370
  -exchange      EXHF   =         0.00000000
  -V(xc)+E(xc)   XCENC  =        33.68669978
  PAW double counting   =       567.87809496     -569.63475389
  entropy T*S    EENTRO =        -0.00000000
  eigenvalues    EBANDS =      -110.03689975
  atomic energy  EATOM  =       457.26981990
  Solvation  Ediel_sol  =         0.00000000
  ---------------------------------------------------
  free energy    TOTEN  =       -14.16553474 eV

  energy without entropy =      -14.16553474  energy(sigma->0) =      -14.16553474


--------------------------------------------------------------------------------------------------------




--------------------------------------- Iteration      9(  11)  ---------------------------------------


    POTLOK:  cpu time      0.0702: real time      0.0707
    SETDIJ:  cpu time      0.0911: real time      0.0918
     EDDAV:  cpu time      0.2378: real time      0.2404
       DOS:  cpu time      0.0008: real time      0.0008
    CHARGE:  cpu time      0.0640: real time      0.0652
    MIXING:  cpu time      0.0029: real time      0.0029
    --------------------------------------------
      LOOP:  cpu time      0.4667: real time      0.4718

 eigenvalue-minimisations  :    96
 total energy-change (2. order) :-0.3050002E-05  (-0.8377860E-08)
 number of electron       8.0000001 magnetization 
 augmentation part        0.6883219 magnetization 

 Broyden mixing:
  rms(total) = 0.10095E-04    rms(broyden)= 0.93771E-05
  rms(prec ) = 0.13859E-04
  weight for this iteration     100.00

 eigenvalues of (default mixing * dielectric matrix)
  average eigenvalue GAMMA=   2.2526
  6.8361  3.6645  2.6378  2.2516  1.8850  1.2908  1.0592  0.9748  0.9748  0.9516

 Free energy of the ion-electron system (eV)
  ---------------------------------------------------
  alpha Z        PSCENC =         0.02803141
  Ewald energy   TEWEN  =       123.36082655
  -Hartree energ DENC   =      -516.71774226
  -exchange      EXHF   =         0.00000000
  -V(xc)+E(xc)   XCENC  =        33.68671575
  PAW double counting   =       567.87890863     -569.63556320
  entropy T*S    EENTRO =        -0.00000000
  eigenvalues    EBANDS =      -110.03653457
  atomic energy  EATOM  =       457.26981990
  Solvation  Ediel_sol  =         0.00000000
  ---------------------------------------------------
  free energy    TOTEN  =       -14.16553779 eV

  energy without entropy =      -14.16553779  energy(sigma->0) =      -14.16553779


--------------------------------------------------------------------------------------------------------




--------------------------------------- Iteration      9(  12)  ---------------------------------------


    POTLOK:  cpu time      0.0660: real time      0.0672
    SETDIJ:  cpu time      0.0903: real time      0.0909
     EDDAV:  cpu time      0.2392: real time      0.2417
       DOS:  cpu time      0.0007: real time      0.0007
    CHARGE:  cpu time      0.0645: real time      0.0657
    MIXING:  cpu time      0.0027: real time      0.0027
    --------------------------------------------
      LOOP:  cpu time      0.4633: real time      0.4688

 eigenvalue-minimisations  :    96
 total energy-change (2. order) :-0.9407602E-06  (-0.1527853E-08)
 number of electron       8.0000001 magnetization 
 augmentation part        0.6883240 magnetization 

 Broyden mixing:
  rms(total) = 0.73524E-05    rms(broyden)= 0.63414E-05
  rms(prec ) = 0.86562E-05
  weight for this iteration     100.00
  WARNING: grid for Broyden might be to small

 eigenvalues of (default mixing * dielectric matrix)
  average eigenvalue GAMMA=   2.4114
  7.7526  4.3053  2.9102  2.4193  2.2601  1.8854  1.0974  1.0103  0.9696  0.9575
  0.9575

 Free energy of the ion-electron system (eV)
  ---------------------------------------------------
  alpha Z        PSCENC =         0.02803141
  Ewald energy   TEWEN  =       123.36082655
  -Hartree energ DENC   =      -516.71753082
  -exchange      EXHF   =         0.00000000
  -V(xc)+E(xc)   XCENC  =        33.68670093
  PAW double counting   =       567.87880456     -569.63544938
  entropy T*S    EENTRO =        -0.00000000
  eigenvalues    EBANDS =      -110.03674188
  atomic energy  EATOM  =       457.26981990
  Solvation  Ediel_sol  =         0.00000000
  ---------------------------------------------------
  free energy    TOTEN  =       -14.16553873 eV

  energy without entropy =      -14.16553873  energy(sigma->0) =      -14.16553873


--------------------------------------------------------------------------------------------------------




--------------------------------------- Iteration      9(  13)  ---------------------------------------


    POTLOK:  cpu time      0.0652: real time      0.0657
    SETDIJ:  cpu time      0.0900: real time      0.0907
     EDDAV:  cpu time      0.2364: real time      0.2389
       DOS:  cpu time      0.0006: real time      0.0006
    CHARGE:  cpu time      0.0641: real time      0.0654
    MIXING:  cpu time      0.0028: real time      0.0028
    --------------------------------------------
      LOOP:  cpu time      0.4591: real time      0.4641

 eigenvalue-minimisations  :    96
 total energy-change (2. order) :-0.5998761E-06  (-0.8184617E-09)
 number of electron       8.0000001 magnetization 
 augmentation part        0.6883230 magnetization 

 Broyden mixing:
  rms(total) = 0.45050E-05    rms(broyden)= 0.25583E-05
  rms(prec ) = 0.37341E-05
  weight for this iteration     100.00
  WARNING: grid for Broyden might be to small

 eigenvalues of (default mixing * dielectric matrix)
  average eigenvalue GAMMA=   2.4392
  8.1490  4.6518  2.9257  2.6291  2.0906  2.0906  1.7563  1.1023  0.9530  0.9530
  0.9940  0.9756

 Free energy of the ion-electron system (eV)
  ---------------------------------------------------
  alpha Z        PSCENC =         0.02803141
  Ewald energy   TEWEN  =       123.36082655
  -Hartree energ DENC   =      -516.71769974
  -exchange      EXHF   =         0.00000000
  -V(xc)+E(xc)   XCENC  =        33.68670911
  PAW double counting   =       567.87830932     -569.63495623
  entropy T*S    EENTRO =        -0.00000000
  eigenvalues    EBANDS =      -110.03657965
  atomic energy  EATOM  =       457.26981990
  Solvation  Ediel_sol  =         0.00000000
  ---------------------------------------------------
  free energy    TOTEN  =       -14.16553933 eV

  energy without entropy =      -14.16553933  energy(sigma->0) =      -14.16553933


--------------------------------------------------------------------------------------------------------




--------------------------------------- Iteration      9(  14)  ---------------------------------------


    POTLOK:  cpu time      0.0654: real time      0.0659
    SETDIJ:  cpu time      0.0903: real time      0.0909
     EDDAV:  cpu time      0.2400: real time      0.2424
       DOS:  cpu time      0.0004: real time      0.0011
    CHARGE:  cpu time      0.0644: real time      0.0655
    MIXING:  cpu time      0.0028: real time      0.0029
    --------------------------------------------
      LOOP:  cpu time      0.4633: real time      0.4687

 eigenvalue-minimisations  :    96
 total energy-change (2. order) :-0.2458746E-06  (-0.1318323E-09)
 number of electron       8.0000001 magnetization 
 augmentation part        0.6883234 magnetization 

 Broyden mixing:
  rms(total) = 0.39804E-05    rms(broyden)= 0.14527E-05
  rms(prec ) = 0.20913E-05
  weight for this iteration     100.00
  WARNING: grid for Broyden might be to small

 eigenvalues of (default mixing * dielectric matrix)
  average eigenvalue GAMMA=   2.4735
  8.5844  5.1410  3.4680  2.6168  2.3579  2.0390  1.9150  1.0717  1.0717  0.9523
  0.9523  1.0157  0.9702

 Free energy of the ion-electron system (eV)
  ---------------------------------------------------
  alpha Z        PSCENC =         0.02803141
  Ewald energy   TEWEN  =       123.36082655
  -Hartree energ DENC   =      -516.71762916
  -exchange      EXHF   =         0.00000000
  -V(xc)+E(xc)   XCENC  =        33.68670543
  PAW double counting   =       567.87809550     -569.63474317
  entropy T*S    EENTRO =        -0.00000000
  eigenvalues    EBANDS =      -110.03664605
  atomic energy  EATOM  =       457.26981990
  Solvation  Ediel_sol  =         0.00000000
  ---------------------------------------------------
  free energy    TOTEN  =       -14.16553957 eV

  energy without entropy =      -14.16553957  energy(sigma->0) =      -14.16553957


--------------------------------------------------------------------------------------------------------




--------------------------------------- Iteration      9(  15)  ---------------------------------------


    POTLOK:  cpu time      0.0654: real time      0.0659
    SETDIJ:  cpu time      0.0897: real time      0.0903
     EDDAV:  cpu time      0.1743: real time      0.1762
       DOS:  cpu time      0.0006: real time      0.0006
    CHARGE:  cpu time      0.0634: real time      0.0646
    MIXING:  cpu time      0.0031: real time      0.0031
    --------------------------------------------
      LOOP:  cpu time      0.3965: real time      0.4008

 eigenvalue-minimisations  :    64
 total energy-change (2. order) :-0.1151694E-06  (-0.3840839E-10)
 number of electron       8.0000001 magnetization 
 augmentation part        0.6883233 magnetization 

 Broyden mixing:
  rms(total) = 0.37709E-05    rms(broyden)= 0.69830E-06
  rms(prec ) = 0.11206E-05
  weight for this iteration     100.00
  WARNING: grid for Broyden might be to small

 eigenvalues of (default mixing * dielectric matrix)
  average eigenvalue GAMMA=   2.5601
  8.9796  5.6286  3.8717  2.8068  2.4839  2.1256  2.1256  1.8539  1.0956  0.9986
  0.9986  0.9718  0.9506  0.9506

 Free energy of the ion-electron system (eV)
  ---------------------------------------------------
  alpha Z        PSCENC =         0.02803141
  Ewald energy   TEWEN  =       123.36082655
  -Hartree energ DENC   =      -516.71765269
  -exchange      EXHF   =         0.00000000
  -V(xc)+E(xc)   XCENC  =        33.68670682
  PAW double counting   =       567.87840501     -569.63505355
  entropy T*S    EENTRO =        -0.00000000
  eigenvalues    EBANDS =      -110.03662314
  atomic energy  EATOM  =       457.26981990
  Solvation  Ediel_sol  =         0.00000000
  ---------------------------------------------------
  free energy    TOTEN  =       -14.16553969 eV

  energy without entropy =      -14.16553969  energy(sigma->0) =      -14.16553969


--------------------------------------------------------------------------------------------------------




--------------------------------------- Iteration      9(  16)  ---------------------------------------


    POTLOK:  cpu time      0.0658: real time      0.0666
    SETDIJ:  cpu time      0.0949: real time      0.0956
     EDDAV:  cpu time      0.6057: real time      0.6628
       DOS:  cpu time      0.0118: real time      0.0119
    CHARGE:  cpu time      0.1385: real time      0.1400
    MIXING:  cpu time      0.0241: real time      0.0242
    --------------------------------------------
      LOOP:  cpu time      0.9407: real time      1.0011

 eigenvalue-minimisations  :    96
 total energy-change (2. order) :-0.1000502E-06  (-0.2252420E-10)
 number of electron       8.0000001 magnetization 
 augmentation part        0.6883232 magnetization 

 Broyden mixing:
  rms(total) = 0.37202E-05    rms(broyden)= 0.32942E-06
  rms(prec ) = 0.48631E-06
  weight for this iteration     100.00
  WARNING: grid for Broyden might be to small

 eigenvalues of (default mixing * dielectric matrix)
  average eigenvalue GAMMA=   2.5826
  9.1942  6.2779  4.2565  3.1131  2.5612  2.3291  1.9201  1.9201  1.2125  1.1065
  0.9518  0.9518  1.0225  0.9606  0.9606

 Free energy of the ion-electron system (eV)
  ---------------------------------------------------
  alpha Z        PSCENC =         0.02803141
  Ewald energy   TEWEN  =       123.36082655
  -Hartree energ DENC   =      -516.71765160
  -exchange      EXHF   =         0.00000000
  -V(xc)+E(xc)   XCENC  =        33.68670673
  PAW double counting   =       567.87841931     -569.63506740
  entropy T*S    EENTRO =        -0.00000000
  eigenvalues    EBANDS =      -110.03662470
  atomic energy  EATOM  =       457.26981990
  Solvation  Ediel_sol  =         0.00000000
  ---------------------------------------------------
  free energy    TOTEN  =       -14.16553979 eV

  energy without entropy =      -14.16553979  energy(sigma->0) =      -14.16553979


--------------------------------------------------------------------------------------------------------




--------------------------------------- Iteration      9(  17)  ---------------------------------------


    POTLOK:  cpu time      0.5669: real time      0.5702
    SETDIJ:  cpu time      0.1261: real time      0.1270
     EDDAV:  cpu time      0.3147: real time      0.3179
       DOS:  cpu time      0.0007: real time      0.0007
    CHARGE:  cpu time      0.0639: real time      0.0651
    MIXING:  cpu time      0.0033: real time      0.0034
    --------------------------------------------
      LOOP:  cpu time      1.0756: real time      1.0842

 eigenvalue-minimisations  :   128
 total energy-change (2. order) :-0.2166360E-07  (-0.9388046E-11)
 number of electron       8.0000001 magnetization 
 augmentation part        0.6883233 magnetization 

 Broyden mixing:
  rms(total) = 0.37145E-05    rms(broyden)= 0.25714E-06
  rms(prec ) = 0.33835E-06
  weight for this iteration     100.00
  WARNING: grid for Broyden might be to small

 eigenvalues of (default mixing * dielectric matrix)
  average eigenvalue GAMMA=   2.6950
  9.5215  6.9538  4.7253  3.4540  2.7900  2.3923  2.3923  1.9292  1.9243  0.9485
  0.9485  0.9692  0.9692  1.0952  1.0846  1.0221

 Free energy of the ion-electron system (eV)
  ---------------------------------------------------
  alpha Z        PSCENC =         0.02803141
  Ewald energy   TEWEN  =       123.36082655
  -Hartree energ DENC   =      -516.71764081
  -exchange      EXHF   =         0.00000000
  -V(xc)+E(xc)   XCENC  =        33.68670612
  PAW double counting   =       567.87838955     -569.63503738
  entropy T*S    EENTRO =        -0.00000000
  eigenvalues    EBANDS =      -110.03663515
  atomic energy  EATOM  =       457.26981990
  Solvation  Ediel_sol  =         0.00000000
  ---------------------------------------------------
  free energy    TOTEN  =       -14.16553981 eV

  energy without entropy =      -14.16553981  energy(sigma->0) =      -14.16553981


--------------------------------------------------------------------------------------------------------




--------------------------------------- Iteration      9(  18)  ---------------------------------------


    POTLOK:  cpu time      0.0670: real time      0.0680
    SETDIJ:  cpu time      0.0895: real time      0.0901
     EDDAV:  cpu time      0.1694: real time      0.1712
       DOS:  cpu time      0.0005: real time      0.0005
    CHARGE:  cpu time      0.0636: real time      0.0649
    MIXING:  cpu time      0.0033: real time      0.0034
    --------------------------------------------
      LOOP:  cpu time      0.3933: real time      0.3981

 eigenvalue-minimisations  :    64
 total energy-change (2. order) :-0.1508806E-07  (-0.1361933E-10)
 number of electron       8.0000001 magnetization 
 augmentation part        0.6883233 magnetization 

 Broyden mixing:
  rms(total) = 0.37061E-05    rms(broyden)= 0.65636E-07
  rms(prec ) = 0.10369E-06
  weight for this iteration     100.00
  WARNING: grid for Broyden might be to small

 eigenvalues of (default mixing * dielectric matrix)
  average eigenvalue GAMMA=   2.6821
  9.6352  7.2035  4.9569  3.6837  2.9277  2.5555  2.2459  1.9191  1.8187  1.6443
  0.9482  0.9482  1.0913  0.9765  0.9765  1.0497  1.0146

 Free energy of the ion-electron system (eV)
  ---------------------------------------------------
  alpha Z        PSCENC =         0.02803141
  Ewald energy   TEWEN  =       123.36082655
  -Hartree energ DENC   =      -516.71764353
  -exchange      EXHF   =         0.00000000
  -V(xc)+E(xc)   XCENC  =        33.68670627
  PAW double counting   =       567.87838378     -569.63503173
  entropy T*S    EENTRO =        -0.00000000
  eigenvalues    EBANDS =      -110.03663247
  atomic energy  EATOM  =       457.26981990
  Solvation  Ediel_sol  =         0.00000000
  ---------------------------------------------------
  free energy    TOTEN  =       -14.16553983 eV

  energy without entropy =      -14.16553983  energy(sigma->0) =      -14.16553983


--------------------------------------------------------------------------------------------------------




--------------------------------------- Iteration      9(  19)  ---------------------------------------


    POTLOK:  cpu time      0.0653: real time      0.0662
    SETDIJ:  cpu time      0.0898: real time      0.0904
     EDDAV:  cpu time      0.3163: real time      0.3195
       DOS:  cpu time      0.0005: real time      0.0005
    --------------------------------------------
      LOOP:  cpu time      0.4719: real time      0.4766

 eigenvalue-minimisations  :   128
 total energy-change (2. order) :-0.1855824E-08  (-0.1257483E-10)
 number of electron       8.0000001 magnetization 
 augmentation part        0.6883233 magnetization 

 Free energy of the ion-electron system (eV)
  ---------------------------------------------------
  alpha Z        PSCENC =         0.02803141
  Ewald energy   TEWEN  =       123.36082655
  -Hartree energ DENC   =      -516.71764575
  -exchange      EXHF   =         0.00000000
  -V(xc)+E(xc)   XCENC  =        33.68670640
  PAW double counting   =       567.87837515     -569.63502311
  entropy T*S    EENTRO =        -0.00000000
  eigenvalues    EBANDS =      -110.03663038
  atomic energy  EATOM  =       457.26981990
  Solvation  Ediel_sol  =         0.00000000
  ---------------------------------------------------
  free energy    TOTEN  =       -14.16553983 eV

  energy without entropy =      -14.16553983  energy(sigma->0) =      -14.16553983


--------------------------------------------------------------------------------------------------------




 average (electrostatic) potential at core
  the test charge radii are     0.5201  0.7215
  (the norm of the test charge is              1.0000)
       1 -44.8458       2 -45.0764       3 -80.7549



 E-fermi :  -7.0716     XC(G=0):  -0.1045     alpha+bet : -0.0163

 val. band max:       -7.1879433391   @ k =   0.0000   0.0000   0.0000
 cond. band min:      -1.0426254290   @ k =   0.0000   0.0000   0.0000
 fundamental gap:      6.1453179101
 Fermi energy:        -7.0715968060

 k-point     1 :       0.0000    0.0000    0.0000
  band No.  band energies     occupation 
      1     -25.4292      2.00000
      2     -13.1504      2.00000
      3      -9.2508      2.00000
      4      -7.1879      2.00000
      5      -1.0426      0.00000
      6       0.0122      0.00000
      7       0.2035      0.00000
      8       0.2975      0.00000
      9       0.3124      0.00000
     10       0.3408      0.00000
     11       0.3480      0.00000
     12       0.4636      0.00000
     13       0.5018      0.00000
     14       0.6021      0.00000
     15       0.6233      0.00000
     16       0.7080      0.00000
     17       0.7082      0.00000
     18       0.7132      0.00000
     19       0.7173      0.00000
     20       0.7217      0.00000
     21       0.7291      0.00000
     22       0.7311      0.00000
     23       0.7367      0.00000
     24       0.9378      0.00000
     25       0.9439      0.00000
     26       1.0206      0.00000
     27       1.0347      0.00000
     28       1.0818      0.00000
     29       1.0850      0.00000
     30       1.0877      0.00000
     31       1.1045      0.00000
     32       1.2566      0.00000


--------------------------------------------------------------------------------------------------------


 soft charge-density along one line, spin component           1
         0         1         2         3         4         5         6         7         8         9
 total charge-density along one line

 pseudopotential strength for first ion, spin component:           1
 -2.379  -4.110  -0.023   0.000   0.002
 -4.110  -7.012  -0.042   0.000   0.005
 -0.023  -0.042  -0.283  -0.000  -0.005
  0.000   0.000  -0.000  -0.327  -0.000
  0.002   0.005  -0.005  -0.000  -0.325
 total augmentation occupancy for first ion, spin component:           1
  3.965  -0.865   0.707  -0.000  -0.104
 -0.865   0.236  -0.151   0.000   0.027
  0.707  -0.151   0.127  -0.000  -0.017
 -0.000   0.000  -0.000   0.038  -0.000
 -0.104   0.027  -0.017  -0.000   0.027


------------------------ aborting loop because EDIFF is reached ----------------------------------------


    CHARGE:  cpu time      0.0632: real time      0.0648
    FORLOC:  cpu time      0.0029: real time      0.0029
    FORNL :  cpu time      0.2452: real time      0.2481
    STRESS:  cpu time      1.0357: real time      1.0463
    FORCOR:  cpu time      0.0651: real time      0.0656
    FORHAR:  cpu time      0.0168: real time      0.0169
    MIXING:  cpu time      0.0032: real time      0.0032
    OFIELD:  cpu time      0.0000: real time      0.0000

 ---------------------------------------------------------------------------------------------

         DFTD3 V3.0 Rev 1        
 Edisp (eV)   -0.00128

 E6    (eV) :    -0.0012
 E8    (eV) :    -0.0001
 % E8        :  5.24
    FORVDW:  cpu time      0.0079: real time      0.0081

  FORCE on cell =-STRESS in cart. coord.  units (eV):
  Direction    XX          YY          ZZ          XY          YZ          ZX
  --------------------------------------------------------------------------------------
  Alpha Z     0.02803     0.02803     0.02803
  Ewald      58.10737    87.06953   -21.81607    23.34665    -0.00008     0.00019
  Hartree   175.15596   180.45705   161.10463     3.85611    -0.00002     0.00003
  E(xc)     -36.39320   -36.24178   -36.84202     0.11224    -0.00000     0.00000
  Local    -318.48792  -344.91649  -249.27829   -20.42855     0.00007    -0.00017
  n-local   -30.99927   -30.36172   -30.93435     0.28730    -0.00000     0.00000
  augment     6.47693     5.94938     8.11272    -0.41194     0.00000    -0.00000
  Kinetic   146.10845   137.42703   168.79606    -6.40290     0.00002    -0.00006
  Fock        0.00000     0.00000     0.00000     0.00000     0.00000     0.00000
  vdW         0.00238     0.00773    -0.00000     0.00389     0.00000     0.00000
  -------------------------------------------------------------------------------------
  Total      -0.00126    -0.58123    -0.82929     0.36280     0.00000     0.00000
  in kB      -0.00025    -0.11640    -0.16608     0.07266     0.00000     0.00000
  external pressure =       -0.09 kB  Pullay stress =        0.00 kB


 VOLUME and BASIS-vectors are now :
 -----------------------------------------------------------------------------
  energy-cutoff  :      400.00
  volume of cell :     8000.00
      direct lattice vectors                 reciprocal lattice vectors
    20.000000000  0.000000000  0.000000000     0.050000000  0.000000000  0.000000000
     0.000000000 20.000000000  0.000000000     0.000000000  0.050000000  0.000000000
     0.000000000  0.000000000 20.000000000     0.000000000  0.000000000  0.050000000

  length of vectors
    20.000000000 20.000000000 20.000000000     0.050000000  0.050000000  0.050000000


 FORCES acting on ions
    electron-ion (+dipol)            ewald-force                    non-local-force                 convergence-correction
 -----------------------------------------------------------------------------------------------
   -.108E+02 0.873E+02 -.149E-03   0.119E+02 -.954E+02 0.163E-03   -.105E+01 0.819E+01 -.129E-04   -.977E-07 0.372E-06 0.552E-09
   -.806E+02 -.398E+02 -.171E-03   0.894E+02 0.440E+02 0.191E-03   -.794E+01 -.386E+01 -.173E-04   -.349E-06 -.195E-06 0.850E-09
   0.567E+02 -.288E+02 0.202E-03   -.101E+03 0.514E+02 -.354E-03   0.437E+02 -.230E+02 0.150E-03   -.683E-06 0.324E-07 0.982E-08
 -----------------------------------------------------------------------------------------------
   -.347E+02 0.186E+02 -.119E-03   0.000E+00 0.000E+00 0.396E-17   0.347E+02 -.186E+02 0.120E-03   -.113E-05 0.209E-06 0.112E-07


 POSITION                                       TOTAL-FORCE (eV/Angst)
 -----------------------------------------------------------------------------------
      9.80755      9.62347     10.00000         0.000525      0.028629      0.000001
     10.52234     10.97263     10.00000         0.862596      0.378090      0.000002
      9.65011     10.58390     10.00000        -0.863121     -0.406719     -0.000002
 -----------------------------------------------------------------------------------
    total drift:                               -0.009186      0.004818      0.000001


--------------------------------------------------------------------------------------------------------



  FREE ENERGIE OF THE ION-ELECTRON SYSTEM (eV)
  ---------------------------------------------------
  free  energy   TOTEN  =       -14.16681688 eV

  energy  without entropy=      -14.16681688  energy(sigma->0) =      -14.16681688

 d Force =-0.2017408E-02[-0.345E-01, 0.305E-01]  d Energy =-0.5650368E-03-0.145E-02
 d Force =-0.3462332E+01[-0.358E+01,-0.335E+01]  d Ewald  =-0.3460671E+01-0.166E-02


--------------------------------------------------------------------------------------------------------


    POTLOK:  cpu time      0.1627: real time      0.1639


--------------------------------------------------------------------------------------------------------


 Finite differences progress:
  Degree of freedom:   4/  9
  Displacement:        2/  2
  Total:               8/ 18
    WAVPRE:  cpu time      0.0099: real time      0.0112
    FEWALD:  cpu time      0.0006: real time      0.0006
    ORTHCH:  cpu time      0.0139: real time      0.0140
     LOOP+:  cpu time     12.2998: real time     12.4804


--------------------------------------- Ionic step       10  -------------------------------------------




--------------------------------------- Iteration     10(   1)  ---------------------------------------


    POTLOK:  cpu time      0.0725: real time      0.0739
    SETDIJ:  cpu time      0.0904: real time      0.0911
     EDDAV:  cpu time      0.1729: real time      0.1748
       DOS:  cpu time      0.0006: real time      0.0011
    CHARGE:  cpu time      0.0639: real time      0.0646
    MIXING:  cpu time      0.0032: real time      0.0032
    --------------------------------------------
      LOOP:  cpu time      0.4035: real time      0.4087

 eigenvalue-minimisations  :    64
 total energy-change (2. order) :-0.6877126E-02  (-0.3196065E-01)
 number of electron       8.0000001 magnetization 
 augmentation part        0.6795488 magnetization 

 Broyden mixing:
  rms(total) = 0.31444E-01    rms(broyden)= 0.31406E-01
  rms(prec ) = 0.33075E-01
  weight for this iteration     100.00

 Free energy of the ion-electron system (eV)
  ---------------------------------------------------
  alpha Z        PSCENC =         0.02803141
  Ewald energy   TEWEN  =       120.75853975
  -Hartree energ DENC   =      -515.35935112
  -exchange      EXHF   =         0.00000000
  -V(xc)+E(xc)   XCENC  =        33.61985712
  PAW double counting   =       567.87838650     -569.63503449
  entropy T*S    EENTRO =        -0.00000000
  eigenvalues    EBANDS =      -108.73266602
  atomic energy  EATOM  =       457.26981990
  Solvation  Ediel_sol  =         0.00000000
  ---------------------------------------------------
  free energy    TOTEN  =       -14.17241695 eV

  energy without entropy =      -14.17241695  energy(sigma->0) =      -14.17241695


--------------------------------------------------------------------------------------------------------




--------------------------------------- Iteration     10(   2)  ---------------------------------------


    POTLOK:  cpu time      0.0826: real time      0.0837
    SETDIJ:  cpu time      0.0911: real time      0.0917
     EDDAV:  cpu time      0.3153: real time      0.3184
       DOS:  cpu time      0.0007: real time      0.0007
    CHARGE:  cpu time      0.0642: real time      0.0654
    MIXING:  cpu time      0.0021: real time      0.0021
    --------------------------------------------
      LOOP:  cpu time      0.5559: real time      0.5619

 eigenvalue-minimisations  :   128
 total energy-change (2. order) : 0.1211952E-02  (-0.9405157E-03)
 number of electron       8.0000001 magnetization 
 augmentation part        0.6824098 magnetization 

 Broyden mixing:
  rms(total) = 0.15852E-01    rms(broyden)= 0.15828E-01
  rms(prec ) = 0.16295E-01
  weight for this iteration     100.00

 eigenvalues of (default mixing * dielectric matrix)
  average eigenvalue GAMMA=   1.3279
  1.3279

 Free energy of the ion-electron system (eV)
  ---------------------------------------------------
  alpha Z        PSCENC =         0.02803141
  Ewald energy   TEWEN  =       120.75853975
  -Hartree energ DENC   =      -514.76927554
  -exchange      EXHF   =         0.00000000
  -V(xc)+E(xc)   XCENC  =        33.58815204
  PAW double counting   =       563.65685022     -565.40415637
  entropy T*S    EENTRO =        -0.00000000
  eigenvalues    EBANDS =      -109.29916642
  atomic energy  EATOM  =       457.26981990
  Solvation  Ediel_sol  =         0.00000000
  ---------------------------------------------------
  free energy    TOTEN  =       -14.17120500 eV

  energy without entropy =      -14.17120500  energy(sigma->0) =      -14.17120500


--------------------------------------------------------------------------------------------------------




--------------------------------------- Iteration     10(   3)  ---------------------------------------


    POTLOK:  cpu time      0.0645: real time      0.0651
    SETDIJ:  cpu time      0.0901: real time      0.0907
     EDDAV:  cpu time      0.2383: real time      0.2408
       DOS:  cpu time      0.0007: real time      0.0007
    CHARGE:  cpu time      0.0645: real time      0.0657
    MIXING:  cpu time      0.0029: real time      0.0036
    --------------------------------------------
      LOOP:  cpu time      0.4610: real time      0.4666

 eigenvalue-minimisations  :    96
 total energy-change (2. order) : 0.1268430E-03  (-0.2595959E-04)
 number of electron       8.0000001 magnetization 
 augmentation part        0.6826813 magnetization 

 Broyden mixing:
  rms(total) = 0.72725E-02    rms(broyden)= 0.72692E-02
  rms(prec ) = 0.74747E-02
  weight for this iteration     100.00

 eigenvalues of (default mixing * dielectric matrix)
  average eigenvalue GAMMA=   1.6943
  1.0802  2.3084

 Free energy of the ion-electron system (eV)
  ---------------------------------------------------
  alpha Z        PSCENC =         0.02803141
  Ewald energy   TEWEN  =       120.75853975
  -Hartree energ DENC   =      -514.69522295
  -exchange      EXHF   =         0.00000000
  -V(xc)+E(xc)   XCENC  =        33.58473315
  PAW double counting   =       561.29702196     -563.04183613
  entropy T*S    EENTRO =        -0.00000000
  eigenvalues    EBANDS =      -109.37216526
  atomic energy  EATOM  =       457.26981990
  Solvation  Ediel_sol  =         0.00000000
  ---------------------------------------------------
  free energy    TOTEN  =       -14.17107816 eV

  energy without entropy =      -14.17107816  energy(sigma->0) =      -14.17107816


--------------------------------------------------------------------------------------------------------




--------------------------------------- Iteration     10(   4)  ---------------------------------------


    POTLOK:  cpu time      0.0638: real time      0.0650
    SETDIJ:  cpu time      0.0903: real time      0.0910
     EDDAV:  cpu time      0.3149: real time      0.3182
       DOS:  cpu time      0.0006: real time      0.0006
    CHARGE:  cpu time      0.0639: real time      0.0650
    MIXING:  cpu time      0.0028: real time      0.0029
    --------------------------------------------
      LOOP:  cpu time      0.5363: real time      0.5427

 eigenvalue-minimisations  :   128
 total energy-change (2. order) :-0.3638418E-04  (-0.1253125E-04)
 number of electron       8.0000001 magnetization 
 augmentation part        0.6825883 magnetization 

 Broyden mixing:
  rms(total) = 0.85143E-03    rms(broyden)= 0.85092E-03
  rms(prec ) = 0.94603E-03
  weight for this iteration     100.00

 eigenvalues of (default mixing * dielectric matrix)
  average eigenvalue GAMMA=   1.7686
  1.0949  2.5361  1.6747

 Free energy of the ion-electron system (eV)
  ---------------------------------------------------
  alpha Z        PSCENC =         0.02803141
  Ewald energy   TEWEN  =       120.75853975
  -Hartree energ DENC   =      -514.69450016
  -exchange      EXHF   =         0.00000000
  -V(xc)+E(xc)   XCENC  =        33.58522620
  PAW double counting   =       559.43966668     -561.18311498
  entropy T*S    EENTRO =        -0.00000000
  eigenvalues    EBANDS =      -109.37478334
  atomic energy  EATOM  =       457.26981990
  Solvation  Ediel_sol  =         0.00000000
  ---------------------------------------------------
  free energy    TOTEN  =       -14.17111454 eV

  energy without entropy =      -14.17111454  energy(sigma->0) =      -14.17111454


--------------------------------------------------------------------------------------------------------




--------------------------------------- Iteration     10(   5)  ---------------------------------------


    POTLOK:  cpu time      0.0636: real time      0.0641
    SETDIJ:  cpu time      0.0908: real time      0.0914
     EDDAV:  cpu time      0.3142: real time      0.3173
       DOS:  cpu time      0.0007: real time      0.0007
    CHARGE:  cpu time      0.0638: real time      0.0651
    MIXING:  cpu time      0.0023: real time      0.0023
    --------------------------------------------
      LOOP:  cpu time      0.5352: real time      0.5408

 eigenvalue-minimisations  :   128
 total energy-change (2. order) :-0.1911582E-04  (-0.1291860E-05)
 number of electron       8.0000001 magnetization 
 augmentation part        0.6826605 magnetization 

 Broyden mixing:
  rms(total) = 0.32218E-03    rms(broyden)= 0.32044E-03
  rms(prec ) = 0.38287E-03
  weight for this iteration     100.00

 eigenvalues of (default mixing * dielectric matrix)
  average eigenvalue GAMMA=   1.5942
  2.5088  1.9836  1.0884  0.7961

 Free energy of the ion-electron system (eV)
  ---------------------------------------------------
  alpha Z        PSCENC =         0.02803141
  Ewald energy   TEWEN  =       120.75853975
  -Hartree energ DENC   =      -514.69385978
  -exchange      EXHF   =         0.00000000
  -V(xc)+E(xc)   XCENC  =        33.58519961
  PAW double counting   =       559.18792146     -560.93103024
  entropy T*S    EENTRO =        -0.00000000
  eigenvalues    EBANDS =      -109.37575578
  atomic energy  EATOM  =       457.26981990
  Solvation  Ediel_sol  =         0.00000000
  ---------------------------------------------------
  free energy    TOTEN  =       -14.17113366 eV

  energy without entropy =      -14.17113366  energy(sigma->0) =      -14.17113366


--------------------------------------------------------------------------------------------------------




--------------------------------------- Iteration     10(   6)  ---------------------------------------


    POTLOK:  cpu time      0.0641: real time      0.0650
    SETDIJ:  cpu time      0.0903: real time      0.0909
     EDDAV:  cpu time      0.3218: real time      0.3249
       DOS:  cpu time      0.0006: real time      0.0006
    CHARGE:  cpu time      0.0642: real time      0.0654
    MIXING:  cpu time      0.0022: real time      0.0022
    --------------------------------------------
      LOOP:  cpu time      0.5431: real time      0.5491

 eigenvalue-minimisations  :   128
 total energy-change (2. order) :-0.9972136E-05  (-0.7033043E-07)
 number of electron       8.0000001 magnetization 
 augmentation part        0.6826524 magnetization 

 Broyden mixing:
  rms(total) = 0.16042E-03    rms(broyden)= 0.16020E-03
  rms(prec ) = 0.22993E-03
  weight for this iteration     100.00

 eigenvalues of (default mixing * dielectric matrix)
  average eigenvalue GAMMA=   1.7481
  2.6743  2.0316  2.0316  0.9413  1.0619

 Free energy of the ion-electron system (eV)
  ---------------------------------------------------
  alpha Z        PSCENC =         0.02803141
  Ewald energy   TEWEN  =       120.75853975
  -Hartree energ DENC   =      -514.69691423
  -exchange      EXHF   =         0.00000000
  -V(xc)+E(xc)   XCENC  =        33.58533485
  PAW double counting   =       559.20734669     -560.95060900
  entropy T*S    EENTRO =        -0.00000000
  eigenvalues    EBANDS =      -109.37269301
  atomic energy  EATOM  =       457.26981990
  Solvation  Ediel_sol  =         0.00000000
  ---------------------------------------------------
  free energy    TOTEN  =       -14.17114363 eV

  energy without entropy =      -14.17114363  energy(sigma->0) =      -14.17114363


--------------------------------------------------------------------------------------------------------




--------------------------------------- Iteration     10(   7)  ---------------------------------------


    POTLOK:  cpu time      0.0693: real time      0.0699
    SETDIJ:  cpu time      0.0901: real time      0.0908
     EDDAV:  cpu time      0.1712: real time      0.1733
       DOS:  cpu time      0.0006: real time      0.0006
    CHARGE:  cpu time      0.0641: real time      0.0654
    MIXING:  cpu time      0.0022: real time      0.0022
    --------------------------------------------
      LOOP:  cpu time      0.3976: real time      0.4022

 eigenvalue-minimisations  :    64
 total energy-change (2. order) :-0.1740728E-04  (-0.1190196E-06)
 number of electron       8.0000001 magnetization 
 augmentation part        0.6826451 magnetization 

 Broyden mixing:
  rms(total) = 0.54539E-04    rms(broyden)= 0.54383E-04
  rms(prec ) = 0.11437E-03
  weight for this iteration     100.00

 eigenvalues of (default mixing * dielectric matrix)
  average eigenvalue GAMMA=   1.7432
  2.9919  2.4134  1.7555  0.9687  1.0633  1.2667

 Free energy of the ion-electron system (eV)
  ---------------------------------------------------
  alpha Z        PSCENC =         0.02803141
  Ewald energy   TEWEN  =       120.75853975
  -Hartree energ DENC   =      -514.69883226
  -exchange      EXHF   =         0.00000000
  -V(xc)+E(xc)   XCENC  =        33.58539821
  PAW double counting   =       559.21414350     -560.95763253
  entropy T*S    EENTRO =        -0.00000000
  eigenvalues    EBANDS =      -109.37062902
  atomic energy  EATOM  =       457.26981990
  Solvation  Ediel_sol  =         0.00000000
  ---------------------------------------------------
  free energy    TOTEN  =       -14.17116104 eV

  energy without entropy =      -14.17116104  energy(sigma->0) =      -14.17116104


--------------------------------------------------------------------------------------------------------




--------------------------------------- Iteration     10(   8)  ---------------------------------------


    POTLOK:  cpu time      0.0640: real time      0.0650
    SETDIJ:  cpu time      0.0899: real time      0.0905
     EDDAV:  cpu time      0.3191: real time      0.3222
       DOS:  cpu time      0.0008: real time      0.0012
    CHARGE:  cpu time      0.0643: real time      0.0650
    MIXING:  cpu time      0.0027: real time      0.0027
    --------------------------------------------
      LOOP:  cpu time      0.5407: real time      0.5466

 eigenvalue-minimisations  :   128
 total energy-change (2. order) :-0.1220760E-04  (-0.6089033E-07)
 number of electron       8.0000001 magnetization 
 augmentation part        0.6826480 magnetization 

 Broyden mixing:
  rms(total) = 0.48556E-04    rms(broyden)= 0.48401E-04
  rms(prec ) = 0.79938E-04
  weight for this iteration     100.00

 eigenvalues of (default mixing * dielectric matrix)
  average eigenvalue GAMMA=   2.0109
  4.3164  2.5943  2.0742  2.0742  1.0362  1.0362  0.9446

 Free energy of the ion-electron system (eV)
  ---------------------------------------------------
  alpha Z        PSCENC =         0.02803141
  Ewald energy   TEWEN  =       120.75853975
  -Hartree energ DENC   =      -514.69925691
  -exchange      EXHF   =         0.00000000
  -V(xc)+E(xc)   XCENC  =        33.58539175
  PAW double counting   =       559.22102969     -560.96455240
  entropy T*S    EENTRO =        -0.00000000
  eigenvalues    EBANDS =      -109.37017644
  atomic energy  EATOM  =       457.26981990
  Solvation  Ediel_sol  =         0.00000000
  ---------------------------------------------------
  free energy    TOTEN  =       -14.17117324 eV

  energy without entropy =      -14.17117324  energy(sigma->0) =      -14.17117324


--------------------------------------------------------------------------------------------------------




--------------------------------------- Iteration     10(   9)  ---------------------------------------


    POTLOK:  cpu time      0.0654: real time      0.0659
    SETDIJ:  cpu time      0.0906: real time      0.0913
     EDDAV:  cpu time      0.1692: real time      0.1709
       DOS:  cpu time      0.0006: real time      0.0006
    CHARGE:  cpu time      0.0640: real time      0.0653
    MIXING:  cpu time      0.0031: real time      0.0031
    --------------------------------------------
      LOOP:  cpu time      0.3928: real time      0.3971

 eigenvalue-minimisations  :    64
 total energy-change (2. order) :-0.1221375E-04  (-0.8609191E-07)
 number of electron       8.0000001 magnetization 
 augmentation part        0.6826464 magnetization 

 Broyden mixing:
  rms(total) = 0.17679E-04    rms(broyden)= 0.17275E-04
  rms(prec ) = 0.33091E-04
  weight for this iteration     100.00

 eigenvalues of (default mixing * dielectric matrix)
  average eigenvalue GAMMA=   2.0585
  5.1171  2.7692  2.3900  1.7979  0.9753  0.9753  1.0453  1.3978

 Free energy of the ion-electron system (eV)
  ---------------------------------------------------
  alpha Z        PSCENC =         0.02803141
  Ewald energy   TEWEN  =       120.75853975
  -Hartree energ DENC   =      -514.69972874
  -exchange      EXHF   =         0.00000000
  -V(xc)+E(xc)   XCENC  =        33.58539591
  PAW double counting   =       559.21997187     -560.96345694
  entropy T*S    EENTRO =        -0.00000000
  eigenvalues    EBANDS =      -109.36975862
  atomic energy  EATOM  =       457.26981990
  Solvation  Ediel_sol  =         0.00000000
  ---------------------------------------------------
  free energy    TOTEN  =       -14.17118546 eV

  energy without entropy =      -14.17118546  energy(sigma->0) =      -14.17118546


--------------------------------------------------------------------------------------------------------




--------------------------------------- Iteration     10(  10)  ---------------------------------------


    POTLOK:  cpu time      0.0694: real time      0.0704
    SETDIJ:  cpu time      0.0903: real time      0.0909
     EDDAV:  cpu time      0.3150: real time      0.3182
       DOS:  cpu time      0.0007: real time      0.0007
    CHARGE:  cpu time      0.0642: real time      0.0655
    MIXING:  cpu time      0.0035: real time      0.0035
    --------------------------------------------
      LOOP:  cpu time      0.5431: real time      0.5491

 eigenvalue-minimisations  :   128
 total energy-change (2. order) :-0.3955248E-05  (-0.7661972E-08)
 number of electron       8.0000001 magnetization 
 augmentation part        0.6826465 magnetization 

 Broyden mixing:
  rms(total) = 0.14804E-04    rms(broyden)= 0.14329E-04
  rms(prec ) = 0.22663E-04
  weight for this iteration     100.00

 eigenvalues of (default mixing * dielectric matrix)
  average eigenvalue GAMMA=   2.2356
  6.5327  2.9421  2.6086  2.0910  1.9266  1.0525  1.0525  0.9570  0.9570

 Free energy of the ion-electron system (eV)
  ---------------------------------------------------
  alpha Z        PSCENC =         0.02803141
  Ewald energy   TEWEN  =       120.75853975
  -Hartree energ DENC   =      -514.69943864
  -exchange      EXHF   =         0.00000000
  -V(xc)+E(xc)   XCENC  =        33.58538039
  PAW double counting   =       559.21775957     -560.96122859
  entropy T*S    EENTRO =        -0.00000000
  eigenvalues    EBANDS =      -109.37005321
  atomic energy  EATOM  =       457.26981990
  Solvation  Ediel_sol  =         0.00000000
  ---------------------------------------------------
  free energy    TOTEN  =       -14.17118941 eV

  energy without entropy =      -14.17118941  energy(sigma->0) =      -14.17118941


--------------------------------------------------------------------------------------------------------




--------------------------------------- Iteration     10(  11)  ---------------------------------------


    POTLOK:  cpu time      0.0648: real time      0.0654
    SETDIJ:  cpu time      0.0901: real time      0.0907
     EDDAV:  cpu time      0.2403: real time      0.2428
       DOS:  cpu time      0.0006: real time      0.0006
    CHARGE:  cpu time      0.0635: real time      0.0647
    MIXING:  cpu time      0.0034: real time      0.0034
    --------------------------------------------
      LOOP:  cpu time      0.4628: real time      0.4677

 eigenvalue-minimisations  :    96
 total energy-change (2. order) :-0.2883942E-05  (-0.5953790E-08)
 number of electron       8.0000001 magnetization 
 augmentation part        0.6826477 magnetization 

 Broyden mixing:
  rms(total) = 0.78360E-05    rms(broyden)= 0.69201E-05
  rms(prec ) = 0.11082E-04
  weight for this iteration     100.00
  WARNING: grid for Broyden might be to small

 eigenvalues of (default mixing * dielectric matrix)
  average eigenvalue GAMMA=   2.3348
  7.2624  3.7389  2.6207  2.3380  1.8613  1.5101  1.0308  1.0308  0.9774  0.9774

 Free energy of the ion-electron system (eV)
  ---------------------------------------------------
  alpha Z        PSCENC =         0.02803141
  Ewald energy   TEWEN  =       120.75853975
  -Hartree energ DENC   =      -514.69916708
  -exchange      EXHF   =         0.00000000
  -V(xc)+E(xc)   XCENC  =        33.58536781
  PAW double counting   =       559.21628142     -560.95975079
  entropy T*S    EENTRO =        -0.00000000
  eigenvalues    EBANDS =      -109.37031472
  atomic energy  EATOM  =       457.26981990
  Solvation  Ediel_sol  =         0.00000000
  ---------------------------------------------------
  free energy    TOTEN  =       -14.17119230 eV

  energy without entropy =      -14.17119230  energy(sigma->0) =      -14.17119230


--------------------------------------------------------------------------------------------------------




--------------------------------------- Iteration     10(  12)  ---------------------------------------


    POTLOK:  cpu time      0.0660: real time      0.0666
    SETDIJ:  cpu time      0.0895: real time      0.0900
     EDDAV:  cpu time      0.2369: real time      0.2392
       DOS:  cpu time      0.0005: real time      0.0005
    CHARGE:  cpu time      0.0636: real time      0.0649
    MIXING:  cpu time      0.0030: real time      0.0030
    --------------------------------------------
      LOOP:  cpu time      0.4595: real time      0.4642

 eigenvalue-minimisations  :    96
 total energy-change (2. order) :-0.1198155E-05  (-0.1498176E-08)
 number of electron       8.0000001 magnetization 
 augmentation part        0.6826463 magnetization 

 Broyden mixing:
  rms(total) = 0.60750E-05    rms(broyden)= 0.48404E-05
  rms(prec ) = 0.67858E-05
  weight for this iteration     100.00
  WARNING: grid for Broyden might be to small

 eigenvalues of (default mixing * dielectric matrix)
  average eigenvalue GAMMA=   2.4045
  7.8352  4.3137  2.7536  2.3993  2.2529  1.8884  1.0846  0.9501  0.9656  1.0029
  1.0029

 Free energy of the ion-electron system (eV)
  ---------------------------------------------------
  alpha Z        PSCENC =         0.02803141
  Ewald energy   TEWEN  =       120.75853975
  -Hartree energ DENC   =      -514.69921100
  -exchange      EXHF   =         0.00000000
  -V(xc)+E(xc)   XCENC  =        33.58537196
  PAW double counting   =       559.21786884     -560.96134731
  entropy T*S    EENTRO =        -0.00000000
  eigenvalues    EBANDS =      -109.37026704
  atomic energy  EATOM  =       457.26981990
  Solvation  Ediel_sol  =         0.00000000
  ---------------------------------------------------
  free energy    TOTEN  =       -14.17119350 eV

  energy without entropy =      -14.17119350  energy(sigma->0) =      -14.17119350


--------------------------------------------------------------------------------------------------------




--------------------------------------- Iteration     10(  13)  ---------------------------------------


    POTLOK:  cpu time      0.0657: real time      0.0667
    SETDIJ:  cpu time      0.0899: real time      0.0905
     EDDAV:  cpu time      0.3134: real time      0.3164
       DOS:  cpu time      0.0006: real time      0.0006
    CHARGE:  cpu time      0.0639: real time      0.0651
    MIXING:  cpu time      0.0028: real time      0.0028
    --------------------------------------------
      LOOP:  cpu time      0.5362: real time      0.5421

 eigenvalue-minimisations  :   128
 total energy-change (2. order) :-0.5977444E-06  (-0.4578364E-09)
 number of electron       8.0000001 magnetization 
 augmentation part        0.6826471 magnetization 

 Broyden mixing:
  rms(total) = 0.45488E-05    rms(broyden)= 0.26890E-05
  rms(prec ) = 0.37167E-05
  weight for this iteration     100.00
  WARNING: grid for Broyden might be to small

 eigenvalues of (default mixing * dielectric matrix)
  average eigenvalue GAMMA=   2.4050
  8.3639  4.5484  2.8403  2.4667  2.3249  1.8447  1.5732  1.0714  0.9925  0.9925
  0.9449  0.8963

 Free energy of the ion-electron system (eV)
  ---------------------------------------------------
  alpha Z        PSCENC =         0.02803141
  Ewald energy   TEWEN  =       120.75853975
  -Hartree energ DENC   =      -514.69907393
  -exchange      EXHF   =         0.00000000
  -V(xc)+E(xc)   XCENC  =        33.58536443
  PAW double counting   =       559.21792655     -560.96140513
  entropy T*S    EENTRO =        -0.00000000
  eigenvalues    EBANDS =      -109.37039708
  atomic energy  EATOM  =       457.26981990
  Solvation  Ediel_sol  =         0.00000000
  ---------------------------------------------------
  free energy    TOTEN  =       -14.17119409 eV

  energy without entropy =      -14.17119409  energy(sigma->0) =      -14.17119409


--------------------------------------------------------------------------------------------------------




--------------------------------------- Iteration     10(  14)  ---------------------------------------


    POTLOK:  cpu time      0.0661: real time      0.0673
    SETDIJ:  cpu time      0.0902: real time      0.0909
     EDDAV:  cpu time      0.3172: real time      0.3204
       DOS:  cpu time      0.0004: real time      0.0010
    CHARGE:  cpu time      0.0640: real time      0.0652
    MIXING:  cpu time      0.0040: real time      0.0040
    --------------------------------------------
      LOOP:  cpu time      0.5418: real time      0.5487

 eigenvalue-minimisations  :   128
 total energy-change (2. order) :-0.2635830E-06  (-0.9896794E-10)
 number of electron       8.0000001 magnetization 
 augmentation part        0.6826469 magnetization 

 Broyden mixing:
  rms(total) = 0.38059E-05    rms(broyden)= 0.10168E-05
  rms(prec ) = 0.17768E-05
  weight for this iteration     100.00
  WARNING: grid for Broyden might be to small

 eigenvalues of (default mixing * dielectric matrix)
  average eigenvalue GAMMA=   2.4983
  8.8926  5.3504  3.4422  2.6207  2.3382  1.9779  1.7982  1.0933  1.0933  0.9725
  0.9725  0.9244  1.0024

 Free energy of the ion-electron system (eV)
  ---------------------------------------------------
  alpha Z        PSCENC =         0.02803141
  Ewald energy   TEWEN  =       120.75853975
  -Hartree energ DENC   =      -514.69912168
  -exchange      EXHF   =         0.00000000
  -V(xc)+E(xc)   XCENC  =        33.58536676
  PAW double counting   =       559.21792931     -560.96140711
  entropy T*S    EENTRO =        -0.00000000
  eigenvalues    EBANDS =      -109.37035271
  atomic energy  EATOM  =       457.26981990
  Solvation  Ediel_sol  =         0.00000000
  ---------------------------------------------------
  free energy    TOTEN  =       -14.17119436 eV

  energy without entropy =      -14.17119436  energy(sigma->0) =      -14.17119436


--------------------------------------------------------------------------------------------------------




--------------------------------------- Iteration     10(  15)  ---------------------------------------


    POTLOK:  cpu time      0.0667: real time      0.0673
    SETDIJ:  cpu time      0.0898: real time      0.0905
     EDDAV:  cpu time      0.3794: real time      0.3829
       DOS:  cpu time      0.0006: real time      0.0006
    CHARGE:  cpu time      0.0643: real time      0.0655
    MIXING:  cpu time      0.0041: real time      0.0042
    --------------------------------------------
      LOOP:  cpu time      0.6050: real time      0.6109

 eigenvalue-minimisations  :   128
 total energy-change (2. order) :-0.1633269E-06  (-0.6234302E-10)
 number of electron       8.0000001 magnetization 
 augmentation part        0.6826469 magnetization 

 Broyden mixing:
  rms(total) = 0.37153E-05    rms(broyden)= 0.59489E-06
  rms(prec ) = 0.97261E-06
  weight for this iteration     100.00
  WARNING: grid for Broyden might be to small

 eigenvalues of (default mixing * dielectric matrix)
  average eigenvalue GAMMA=   2.6261
  9.2356  6.0241  3.9676  2.9442  2.5272  2.4028  1.9117  1.7644  1.0652  1.0324
  1.0324  0.9661  0.9661  0.9260

 Free energy of the ion-electron system (eV)
  ---------------------------------------------------
  alpha Z        PSCENC =         0.02803141
  Ewald energy   TEWEN  =       120.75853975
  -Hartree energ DENC   =      -514.69913414
  -exchange      EXHF   =         0.00000000
  -V(xc)+E(xc)   XCENC  =        33.58536725
  PAW double counting   =       559.21785540     -560.96133228
  entropy T*S    EENTRO =        -0.00000000
  eigenvalues    EBANDS =      -109.37034181
  atomic energy  EATOM  =       457.26981990
  Solvation  Ediel_sol  =         0.00000000
  ---------------------------------------------------
  free energy    TOTEN  =       -14.17119452 eV

  energy without entropy =      -14.17119452  energy(sigma->0) =      -14.17119452


--------------------------------------------------------------------------------------------------------




--------------------------------------- Iteration     10(  16)  ---------------------------------------


    POTLOK:  cpu time      0.0667: real time      0.0677
    SETDIJ:  cpu time      0.0899: real time      0.0906
     EDDAV:  cpu time      0.3167: real time      0.3198
       DOS:  cpu time      0.0005: real time      0.0005
    CHARGE:  cpu time      0.0638: real time      0.0650
    MIXING:  cpu time      0.0044: real time      0.0044
    --------------------------------------------
      LOOP:  cpu time      0.5420: real time      0.5480

 eigenvalue-minimisations  :   128
 total energy-change (2. order) :-0.1146269E-06  (-0.3135092E-10)
 number of electron       8.0000001 magnetization 
 augmentation part        0.6826469 magnetization 

 Broyden mixing:
  rms(total) = 0.36796E-05    rms(broyden)= 0.29978E-06
  rms(prec ) = 0.40588E-06
  weight for this iteration     100.00
  WARNING: grid for Broyden might be to small

 eigenvalues of (default mixing * dielectric matrix)
  average eigenvalue GAMMA=   2.6138
  9.4889  6.4960  4.3427  3.0488  2.5996  2.2824  1.9938  1.7819  1.2398  1.0809
  0.9906  0.9906  0.9781  0.9781  0.9152

 Free energy of the ion-electron system (eV)
  ---------------------------------------------------
  alpha Z        PSCENC =         0.02803141
  Ewald energy   TEWEN  =       120.75853975
  -Hartree energ DENC   =      -514.69914406
  -exchange      EXHF   =         0.00000000
  -V(xc)+E(xc)   XCENC  =        33.58536766
  PAW double counting   =       559.21779582     -560.96127293
  entropy T*S    EENTRO =        -0.00000000
  eigenvalues    EBANDS =      -109.37033218
  atomic energy  EATOM  =       457.26981990
  Solvation  Ediel_sol  =         0.00000000
  ---------------------------------------------------
  free energy    TOTEN  =       -14.17119464 eV

  energy without entropy =      -14.17119464  energy(sigma->0) =      -14.17119464


--------------------------------------------------------------------------------------------------------




--------------------------------------- Iteration     10(  17)  ---------------------------------------


    POTLOK:  cpu time      0.0673: real time      0.0678
    SETDIJ:  cpu time      0.0896: real time      0.0902
     EDDAV:  cpu time      0.3152: real time      0.3185
       DOS:  cpu time      0.0007: real time      0.0008
    CHARGE:  cpu time      0.0633: real time      0.0645
    MIXING:  cpu time      0.0033: real time      0.0034
    --------------------------------------------
      LOOP:  cpu time      0.5394: real time      0.5452

 eigenvalue-minimisations  :   128
 total energy-change (2. order) :-0.1656645E-07  (-0.9643841E-11)
 number of electron       8.0000001 magnetization 
 augmentation part        0.6826469 magnetization 

 Broyden mixing:
  rms(total) = 0.36708E-05    rms(broyden)= 0.15895E-06
  rms(prec ) = 0.23509E-06
  weight for this iteration     100.00
  WARNING: grid for Broyden might be to small

 eigenvalues of (default mixing * dielectric matrix)
  average eigenvalue GAMMA=   2.7185
  9.7197  6.9902  4.8203  3.5741  2.7625  2.5585  2.3085  1.9673  1.7926  1.0825
  1.0626  0.9769  0.9769  0.9931  0.9931  0.9179

 Free energy of the ion-electron system (eV)
  ---------------------------------------------------
  alpha Z        PSCENC =         0.02803141
  Ewald energy   TEWEN  =       120.75853975
  -Hartree energ DENC   =      -514.69914109
  -exchange      EXHF   =         0.00000000
  -V(xc)+E(xc)   XCENC  =        33.58536751
  PAW double counting   =       559.21777172     -560.96124876
  entropy T*S    EENTRO =        -0.00000000
  eigenvalues    EBANDS =      -109.37033510
  atomic energy  EATOM  =       457.26981990
  Solvation  Ediel_sol  =         0.00000000
  ---------------------------------------------------
  free energy    TOTEN  =       -14.17119465 eV

  energy without entropy =      -14.17119465  energy(sigma->0) =      -14.17119465


--------------------------------------------------------------------------------------------------------




--------------------------------------- Iteration     10(  18)  ---------------------------------------


    POTLOK:  cpu time      0.0668: real time      0.0673
    SETDIJ:  cpu time      0.0897: real time      0.0904
     EDDAV:  cpu time      0.1687: real time      0.1704
       DOS:  cpu time      0.0005: real time      0.0010
    CHARGE:  cpu time      0.0635: real time      0.0643
    MIXING:  cpu time      0.0034: real time      0.0035
    --------------------------------------------
      LOOP:  cpu time      0.3927: real time      0.3969

 eigenvalue-minimisations  :    64
 total energy-change (2. order) :-0.1181843E-07  (-0.1244516E-10)
 number of electron       8.0000001 magnetization 
 augmentation part        0.6826469 magnetization 

 Broyden mixing:
  rms(total) = 0.36680E-05    rms(broyden)= 0.67800E-07
  rms(prec ) = 0.93268E-07
  weight for this iteration     100.00
  WARNING: grid for Broyden might be to small

 eigenvalues of (default mixing * dielectric matrix)
  average eigenvalue GAMMA=   2.7182
  9.8022  7.2080  5.0477  3.7960  2.9678  2.5780  2.3106  1.9679  1.7865  1.7865
  1.0814  1.0120  1.0120  0.9668  0.9668  0.9987  0.9202

 Free energy of the ion-electron system (eV)
  ---------------------------------------------------
  alpha Z        PSCENC =         0.02803141
  Ewald energy   TEWEN  =       120.75853975
  -Hartree energ DENC   =      -514.69914009
  -exchange      EXHF   =         0.00000000
  -V(xc)+E(xc)   XCENC  =        33.58536749
  PAW double counting   =       559.21781361     -560.96129078
  entropy T*S    EENTRO =        -0.00000000
  eigenvalues    EBANDS =      -109.37033596
  atomic energy  EATOM  =       457.26981990
  Solvation  Ediel_sol  =         0.00000000
  ---------------------------------------------------
  free energy    TOTEN  =       -14.17119466 eV

  energy without entropy =      -14.17119466  energy(sigma->0) =      -14.17119466


--------------------------------------------------------------------------------------------------------




--------------------------------------- Iteration     10(  19)  ---------------------------------------


    POTLOK:  cpu time      0.0696: real time      0.0704
    SETDIJ:  cpu time      0.1210: real time      0.1218
     EDDAV:  cpu time      0.3221: real time      0.3253
       DOS:  cpu time      0.0005: real time      0.0006
    --------------------------------------------
      LOOP:  cpu time      0.5133: real time      0.5180

 eigenvalue-minimisations  :   128
 total energy-change (2. order) :-0.1311719E-08  (-0.1528733E-10)
 number of electron       8.0000001 magnetization 
 augmentation part        0.6826469 magnetization 

 Free energy of the ion-electron system (eV)
  ---------------------------------------------------
  alpha Z        PSCENC =         0.02803141
  Ewald energy   TEWEN  =       120.75853975
  -Hartree energ DENC   =      -514.69913933
  -exchange      EXHF   =         0.00000000
  -V(xc)+E(xc)   XCENC  =        33.58536745
  PAW double counting   =       559.21780709     -560.96128425
  entropy T*S    EENTRO =        -0.00000000
  eigenvalues    EBANDS =      -109.37033668
  atomic energy  EATOM  =       457.26981990
  Solvation  Ediel_sol  =         0.00000000
  ---------------------------------------------------
  free energy    TOTEN  =       -14.17119466 eV

  energy without entropy =      -14.17119466  energy(sigma->0) =      -14.17119466


--------------------------------------------------------------------------------------------------------




 average (electrostatic) potential at core
  the test charge radii are     0.5201  0.7215
  (the norm of the test charge is              1.0000)
       1 -44.8323       2 -44.7378       3 -80.7380



 E-fermi :  -7.0985     XC(G=0):  -0.1049     alpha+bet : -0.0163

 val. band max:       -7.1572138962   @ k =   0.0000   0.0000   0.0000
 cond. band min:      -1.0779599766   @ k =   0.0000   0.0000   0.0000
 fundamental gap:      6.0792539196
 Fermi energy:        -7.0985426905

 k-point     1 :       0.0000    0.0000    0.0000
  band No.  band energies     occupation 
      1     -25.2688      2.00000
      2     -13.0557      2.00000
      3      -9.2034      2.00000
      4      -7.1572      2.00000
      5      -1.0780      0.00000
      6       0.0112      0.00000
      7       0.1918      0.00000
      8       0.2969      0.00000
      9       0.3115      0.00000
     10       0.3410      0.00000
     11       0.3480      0.00000
     12       0.4618      0.00000
     13       0.4941      0.00000
     14       0.6013      0.00000
     15       0.6219      0.00000
     16       0.7076      0.00000
     17       0.7078      0.00000
     18       0.7133      0.00000
     19       0.7172      0.00000
     20       0.7212      0.00000
     21       0.7298      0.00000
     22       0.7311      0.00000
     23       0.7369      0.00000
     24       0.9343      0.00000
     25       0.9378      0.00000
     26       1.0200      0.00000
     27       1.0339      0.00000
     28       1.0807      0.00000
     29       1.0850      0.00000
     30       1.0878      0.00000
     31       1.1044      0.00000
     32       1.2507      0.00000


--------------------------------------------------------------------------------------------------------


 soft charge-density along one line, spin component           1
         0         1         2         3         4         5         6         7         8         9
 total charge-density along one line

 pseudopotential strength for first ion, spin component:           1
 -2.379  -4.109  -0.023   0.000   0.002
 -4.109  -7.012  -0.042   0.000   0.005
 -0.023  -0.042  -0.283  -0.000  -0.005
  0.000   0.000  -0.000  -0.327  -0.000
  0.002   0.005  -0.005  -0.000  -0.325
 total augmentation occupancy for first ion, spin component:           1
  3.965  -0.866   0.708  -0.000  -0.104
 -0.866   0.236  -0.151   0.000   0.027
  0.708  -0.151   0.127  -0.000  -0.017
 -0.000   0.000  -0.000   0.038  -0.000
 -0.104   0.027  -0.017  -0.000   0.027


------------------------ aborting loop because EDIFF is reached ----------------------------------------


    CHARGE:  cpu time      0.0643: real time      0.0650
    FORLOC:  cpu time      0.0022: real time      0.0022
    FORNL :  cpu time      0.2447: real time      0.2475
    STRESS:  cpu time      0.9244: real time      0.9344
    FORCOR:  cpu time      0.0555: real time      0.0559
    FORHAR:  cpu time      0.0146: real time      0.0147
    MIXING:  cpu time      0.0027: real time      0.0027
    OFIELD:  cpu time      0.0000: real time      0.0000

 ---------------------------------------------------------------------------------------------

         DFTD3 V3.0 Rev 1        
 Edisp (eV)   -0.00146

 E6    (eV) :    -0.0014
 E8    (eV) :    -0.0001
 % E8        :  5.25
    FORVDW:  cpu time      0.0079: real time      0.0080

  FORCE on cell =-STRESS in cart. coord.  units (eV):
  Direction    XX          YY          ZZ          XY          YZ          ZX
  --------------------------------------------------------------------------------------
  Alpha Z     0.02803     0.02803     0.02803
  Ewald      55.39705    87.17832   -21.81682    22.99737    -0.00008     0.00018
  Hartree   174.45291   179.86623   160.38000     4.07498    -0.00001     0.00003
  E(xc)     -36.28810   -36.13046   -36.73624     0.11846    -0.00000     0.00000
  Local    -316.11438  -344.32067  -248.32727   -20.72828     0.00007    -0.00016
  n-local   -30.54509   -30.16526   -30.77173     0.36789     0.00000     0.00000
  augment     6.46582     5.91764     8.07841    -0.40533     0.00000    -0.00000
  Kinetic   145.56632   136.77329   168.33609    -6.62194     0.00002    -0.00006
  Fock        0.00000     0.00000     0.00000     0.00000     0.00000     0.00000
  vdW         0.00280     0.00875    -0.00000     0.00451     0.00000     0.00000
  -------------------------------------------------------------------------------------
  Total      -1.03464    -0.84413    -0.82954    -0.19235     0.00000     0.00000
  in kB      -0.20721    -0.16906    -0.16613    -0.03852     0.00000     0.00000
  external pressure =       -0.18 kB  Pullay stress =        0.00 kB


 VOLUME and BASIS-vectors are now :
 -----------------------------------------------------------------------------
  energy-cutoff  :      400.00
  volume of cell :     8000.00
      direct lattice vectors                 reciprocal lattice vectors
    20.000000000  0.000000000  0.000000000     0.050000000  0.000000000  0.000000000
     0.000000000 20.000000000  0.000000000     0.000000000  0.050000000  0.000000000
     0.000000000  0.000000000 20.000000000     0.000000000  0.000000000  0.050000000

  length of vectors
    20.000000000 20.000000000 20.000000000     0.050000000  0.050000000  0.050000000


 FORCES acting on ions
    electron-ion (+dipol)            ewald-force                    non-local-force                 convergence-correction
 -----------------------------------------------------------------------------------------------
   -.108E+02 0.871E+02 -.149E-03   0.119E+02 -.952E+02 0.163E-03   -.104E+01 0.819E+01 -.130E-04   0.395E-07 -.715E-07 -.331E-09
   -.775E+02 -.392E+02 -.161E-03   0.843E+02 0.426E+02 0.176E-03   -.716E+01 -.361E+01 -.159E-04   0.809E-07 0.343E-08 -.431E-09
   0.537E+02 -.293E+02 0.192E-03   -.963E+02 0.526E+02 -.339E-03   0.428E+02 -.231E+02 0.147E-03   0.949E-06 0.739E-07 -.526E-08
 -----------------------------------------------------------------------------------------------
   -.346E+02 0.185E+02 -.118E-03   0.000E+00 0.711E-14 0.396E-17   0.346E+02 -.185E+02 0.118E-03   0.107E-05 0.580E-08 -.602E-08


 POSITION                                       TOTAL-FORCE (eV/Angst)
 -----------------------------------------------------------------------------------
      9.80755      9.62347     10.00000         0.088326      0.039944      0.000001
     10.54234     10.99263     10.00000        -0.340140     -0.258714     -0.000001
      9.65011     10.58390     10.00000         0.251814      0.218770      0.000000
 -----------------------------------------------------------------------------------
    total drift:                               -0.008829      0.004839      0.000000


--------------------------------------------------------------------------------------------------------



  FREE ENERGIE OF THE ION-ELECTRON SYSTEM (eV)
  ---------------------------------------------------
  free  energy   TOTEN  =       -14.17265776 eV

  energy  without entropy=      -14.17265776  energy(sigma->0) =      -14.17265776

 d Force = 0.6418325E-02[-0.120E-01, 0.248E-01]  d Energy = 0.5840882E-02 0.577E-03
 d Force = 0.2603025E+01[ 0.254E+01, 0.267E+01]  d Ewald  = 0.2602287E+01 0.738E-03


--------------------------------------------------------------------------------------------------------


    POTLOK:  cpu time      0.1586: real time      0.1597


--------------------------------------------------------------------------------------------------------


 Finite differences progress:
  Degree of freedom:   5/  9
  Displacement:        1/  2
  Total:               9/ 18
    WAVPRE:  cpu time      0.0100: real time      0.0113
    FEWALD:  cpu time      0.0003: real time      0.0003
    ORTHCH:  cpu time      0.0144: real time      0.0146
     LOOP+:  cpu time     11.0963: real time     11.2194


--------------------------------------- Ionic step       11  -------------------------------------------




--------------------------------------- Iteration     11(   1)  ---------------------------------------


    POTLOK:  cpu time      0.0635: real time      0.0645
    SETDIJ:  cpu time      0.0902: real time      0.0908
     EDDAV:  cpu time      0.1705: real time      0.1723
       DOS:  cpu time      0.0005: real time      0.0005
    CHARGE:  cpu time      0.0638: real time      0.0651
    MIXING:  cpu time      0.0027: real time      0.0027
    --------------------------------------------
      LOOP:  cpu time      0.3911: real time      0.3959

 eigenvalue-minimisations  :    64
 total energy-change (2. order) : 0.1409971E-03  (-0.5341191E-01)
 number of electron       8.0000001 magnetization 
 augmentation part        0.6858427 magnetization 

 Broyden mixing:
  rms(total) = 0.24421E-01    rms(broyden)= 0.24331E-01
  rms(prec ) = 0.25325E-01
  weight for this iteration     100.00

 Free energy of the ion-electron system (eV)
  ---------------------------------------------------
  alpha Z        PSCENC =         0.02803141
  Ewald energy   TEWEN  =       122.42843087
  -Hartree energ DENC   =      -515.59181918
  -exchange      EXHF   =         0.00000000
  -V(xc)+E(xc)   XCENC  =        33.63107289
  PAW double counting   =       559.21779949     -560.96127663
  entropy T*S    EENTRO =        -0.00000000
  eigenvalues    EBANDS =      -110.19311242
  atomic energy  EATOM  =       457.26981990
  Solvation  Ediel_sol  =         0.00000000
  ---------------------------------------------------
  free energy    TOTEN  =       -14.17105367 eV

  energy without entropy =      -14.17105367  energy(sigma->0) =      -14.17105367


--------------------------------------------------------------------------------------------------------




--------------------------------------- Iteration     11(   2)  ---------------------------------------


    POTLOK:  cpu time      0.0640: real time      0.0651
    SETDIJ:  cpu time      0.0905: real time      0.0911
     EDDAV:  cpu time      0.2354: real time      0.2379
       DOS:  cpu time      0.0007: real time      0.0007
    CHARGE:  cpu time      0.0640: real time      0.0652
    MIXING:  cpu time      0.0023: real time      0.0023
    --------------------------------------------
      LOOP:  cpu time      0.4568: real time      0.4623

 eigenvalue-minimisations  :    96
 total energy-change (2. order) : 0.8151855E-04  (-0.4118204E-03)
 number of electron       8.0000001 magnetization 
 augmentation part        0.6850860 magnetization 

 Broyden mixing:
  rms(total) = 0.14802E-01    rms(broyden)= 0.14789E-01
  rms(prec ) = 0.15313E-01
  weight for this iteration     100.00

 eigenvalues of (default mixing * dielectric matrix)
  average eigenvalue GAMMA=   1.9679
  1.9679

 Free energy of the ion-electron system (eV)
  ---------------------------------------------------
  alpha Z        PSCENC =         0.02803141
  Ewald energy   TEWEN  =       122.42843087
  -Hartree energ DENC   =      -515.86392775
  -exchange      EXHF   =         0.00000000
  -V(xc)+E(xc)   XCENC  =        33.64493038
  PAW double counting   =       561.45247410     -563.19735818
  entropy T*S    EENTRO =        -0.00000000
  eigenvalues    EBANDS =      -109.93337288
  atomic energy  EATOM  =       457.26981990
  Solvation  Ediel_sol  =         0.00000000
  ---------------------------------------------------
  free energy    TOTEN  =       -14.17097215 eV

  energy without entropy =      -14.17097215  energy(sigma->0) =      -14.17097215


--------------------------------------------------------------------------------------------------------




--------------------------------------- Iteration     11(   3)  ---------------------------------------


    POTLOK:  cpu time      0.0677: real time      0.0687
    SETDIJ:  cpu time      0.0904: real time      0.0910
     EDDAV:  cpu time      0.2351: real time      0.2381
       DOS:  cpu time      0.0006: real time      0.0006
    CHARGE:  cpu time      0.0645: real time      0.0656
    MIXING:  cpu time      0.0025: real time      0.0025
    --------------------------------------------
      LOOP:  cpu time      0.4607: real time      0.4666

 eigenvalue-minimisations  :    96
 total energy-change (2. order) :-0.1639997E-03  (-0.5373384E-04)
 number of electron       8.0000001 magnetization 
 augmentation part        0.6846066 magnetization 

 Broyden mixing:
  rms(total) = 0.38136E-02    rms(broyden)= 0.38080E-02
  rms(prec ) = 0.40374E-02
  weight for this iteration     100.00

 eigenvalues of (default mixing * dielectric matrix)
  average eigenvalue GAMMA=   1.7338
  1.2112  2.2565

 Free energy of the ion-electron system (eV)
  ---------------------------------------------------
  alpha Z        PSCENC =         0.02803141
  Ewald energy   TEWEN  =       122.42843087
  -Hartree energ DENC   =      -515.98702104
  -exchange      EXHF   =         0.00000000
  -V(xc)+E(xc)   XCENC  =        33.65056428
  PAW double counting   =       563.59061504     -565.33602732
  entropy T*S    EENTRO =        -0.00000000
  eigenvalues    EBANDS =      -109.81554929
  atomic energy  EATOM  =       457.26981990
  Solvation  Ediel_sol  =         0.00000000
  ---------------------------------------------------
  free energy    TOTEN  =       -14.17113615 eV

  energy without entropy =      -14.17113615  energy(sigma->0) =      -14.17113615


--------------------------------------------------------------------------------------------------------




--------------------------------------- Iteration     11(   4)  ---------------------------------------


    POTLOK:  cpu time      0.0672: real time      0.0683
    SETDIJ:  cpu time      0.0903: real time      0.0909
     EDDAV:  cpu time      0.3452: real time      0.3488
       DOS:  cpu time      0.0006: real time      0.0006
    CHARGE:  cpu time      0.0646: real time      0.0659
    MIXING:  cpu time      0.0048: real time      0.0048
    --------------------------------------------
      LOOP:  cpu time      0.5727: real time      0.5792

 eigenvalue-minimisations  :   128
 total energy-change (2. order) :-0.6949808E-04  (-0.9712988E-05)
 number of electron       8.0000001 magnetization 
 augmentation part        0.6849040 magnetization 

 Broyden mixing:
  rms(total) = 0.12249E-02    rms(broyden)= 0.12243E-02
  rms(prec ) = 0.14179E-02
  weight for this iteration     100.00

 eigenvalues of (default mixing * dielectric matrix)
  average eigenvalue GAMMA=   1.6063
  2.5518  1.1336  1.1336

 Free energy of the ion-electron system (eV)
  ---------------------------------------------------
  alpha Z        PSCENC =         0.02803141
  Ewald energy   TEWEN  =       122.42843087
  -Hartree energ DENC   =      -515.93883044
  -exchange      EXHF   =         0.00000000
  -V(xc)+E(xc)   XCENC  =        33.64772974
  PAW double counting   =       563.94529517     -565.68989502
  entropy T*S    EENTRO =        -0.00000000
  eigenvalues    EBANDS =      -109.86178728
  atomic energy  EATOM  =       457.26981990
  Solvation  Ediel_sol  =         0.00000000
  ---------------------------------------------------
  free energy    TOTEN  =       -14.17120565 eV

  energy without entropy =      -14.17120565  energy(sigma->0) =      -14.17120565


--------------------------------------------------------------------------------------------------------




--------------------------------------- Iteration     11(   5)  ---------------------------------------


    POTLOK:  cpu time      0.0660: real time      0.0665
    SETDIJ:  cpu time      0.0900: real time      0.0907
     EDDAV:  cpu time      0.3192: real time      0.3227
       DOS:  cpu time      0.0006: real time      0.0006
    CHARGE:  cpu time      0.0651: real time      0.0664
    MIXING:  cpu time      0.0022: real time      0.0022
    --------------------------------------------
      LOOP:  cpu time      0.5430: real time      0.5490

 eigenvalue-minimisations  :   128
 total energy-change (2. order) :-0.4016322E-04  (-0.1431743E-05)
 number of electron       8.0000001 magnetization 
 augmentation part        0.6847520 magnetization 

 Broyden mixing:
  rms(total) = 0.63486E-03    rms(broyden)= 0.63459E-03
  rms(prec ) = 0.80199E-03
  weight for this iteration     100.00

 eigenvalues of (default mixing * dielectric matrix)
  average eigenvalue GAMMA=   1.6570
  2.6644  1.9890  1.1282  0.8464

 Free energy of the ion-electron system (eV)
  ---------------------------------------------------
  alpha Z        PSCENC =         0.02803141
  Ewald energy   TEWEN  =       122.42843087
  -Hartree energ DENC   =      -515.95756300
  -exchange      EXHF   =         0.00000000
  -V(xc)+E(xc)   XCENC  =        33.64871224
  PAW double counting   =       564.13894858     -565.88368701
  entropy T*S    EENTRO =        -0.00000000
  eigenvalues    EBANDS =      -109.84393880
  atomic energy  EATOM  =       457.26981990
  Solvation  Ediel_sol  =         0.00000000
  ---------------------------------------------------
  free energy    TOTEN  =       -14.17124581 eV

  energy without entropy =      -14.17124581  energy(sigma->0) =      -14.17124581


--------------------------------------------------------------------------------------------------------




--------------------------------------- Iteration     11(   6)  ---------------------------------------


    POTLOK:  cpu time      0.0623: real time      0.0645
    SETDIJ:  cpu time      0.0899: real time      0.0905
     EDDAV:  cpu time      0.3164: real time      0.3196
       DOS:  cpu time      0.0005: real time      0.0005
    CHARGE:  cpu time      0.0649: real time      0.0662
    MIXING:  cpu time      0.0025: real time      0.0025
    --------------------------------------------
      LOOP:  cpu time      0.5366: real time      0.5438

 eigenvalue-minimisations  :   128
 total energy-change (2. order) :-0.5332940E-04  (-0.8614180E-06)
 number of electron       8.0000001 magnetization 
 augmentation part        0.6847841 magnetization 

 Broyden mixing:
  rms(total) = 0.19542E-03    rms(broyden)= 0.19522E-03
  rms(prec ) = 0.36107E-03
  weight for this iteration     100.00

 eigenvalues of (default mixing * dielectric matrix)
  average eigenvalue GAMMA=   1.7058
  2.7158  1.9160  1.9160  1.0801  0.9010

 Free energy of the ion-electron system (eV)
  ---------------------------------------------------
  alpha Z        PSCENC =         0.02803141
  Ewald energy   TEWEN  =       122.42843087
  -Hartree energ DENC   =      -515.94505361
  -exchange      EXHF   =         0.00000000
  -V(xc)+E(xc)   XCENC  =        33.64804722
  PAW double counting   =       564.11078505     -565.85525829
  entropy T*S    EENTRO =        -0.00000000
  eigenvalues    EBANDS =      -109.85610169
  atomic energy  EATOM  =       457.26981990
  Solvation  Ediel_sol  =         0.00000000
  ---------------------------------------------------
  free energy    TOTEN  =       -14.17129914 eV

  energy without entropy =      -14.17129914  energy(sigma->0) =      -14.17129914


--------------------------------------------------------------------------------------------------------




--------------------------------------- Iteration     11(   7)  ---------------------------------------


    POTLOK:  cpu time      0.0647: real time      0.0658
    SETDIJ:  cpu time      0.0984: real time      0.0994
     EDDAV:  cpu time      0.3184: real time      0.3215
       DOS:  cpu time      0.0005: real time      0.0005
    CHARGE:  cpu time      0.0640: real time      0.0653
    MIXING:  cpu time      0.0025: real time      0.0026
    --------------------------------------------
      LOOP:  cpu time      0.5486: real time      0.5552

 eigenvalue-minimisations  :   128
 total energy-change (2. order) :-0.5142399E-04  (-0.6209957E-06)
 number of electron       8.0000001 magnetization 
 augmentation part        0.6848056 magnetization 

 Broyden mixing:
  rms(total) = 0.11895E-03    rms(broyden)= 0.11869E-03
  rms(prec ) = 0.21997E-03
  weight for this iteration     100.00

 eigenvalues of (default mixing * dielectric matrix)
  average eigenvalue GAMMA=   1.8588
  3.6415  2.5716  1.8214  0.9562  0.9562  1.2061

 Free energy of the ion-electron system (eV)
  ---------------------------------------------------
  alpha Z        PSCENC =         0.02803141
  Ewald energy   TEWEN  =       122.42843087
  -Hartree energ DENC   =      -515.93998520
  -exchange      EXHF   =         0.00000000
  -V(xc)+E(xc)   XCENC  =        33.64777059
  PAW double counting   =       564.09161645     -565.83595457
  entropy T*S    EENTRO =        -0.00000000
  eigenvalues    EBANDS =      -109.86108001
  atomic energy  EATOM  =       457.26981990
  Solvation  Ediel_sol  =         0.00000000
  ---------------------------------------------------
  free energy    TOTEN  =       -14.17135056 eV

  energy without entropy =      -14.17135056  energy(sigma->0) =      -14.17135056


--------------------------------------------------------------------------------------------------------




--------------------------------------- Iteration     11(   8)  ---------------------------------------


    POTLOK:  cpu time      0.0651: real time      0.0656
    SETDIJ:  cpu time      0.0906: real time      0.0912
     EDDAV:  cpu time      0.1688: real time      0.1706
       DOS:  cpu time      0.0005: real time      0.0005
    CHARGE:  cpu time      0.0645: real time      0.0656
    MIXING:  cpu time      0.0028: real time      0.0028
    --------------------------------------------
      LOOP:  cpu time      0.3923: real time      0.3964

 eigenvalue-minimisations  :    64
 total energy-change (2. order) :-0.3041158E-04  (-0.3531523E-06)
 number of electron       8.0000001 magnetization 
 augmentation part        0.6847948 magnetization 

 Broyden mixing:
  rms(total) = 0.77311E-04    rms(broyden)= 0.77168E-04
  rms(prec ) = 0.13041E-03
  weight for this iteration     100.00

 eigenvalues of (default mixing * dielectric matrix)
  average eigenvalue GAMMA=   2.0771
  4.5735  2.5287  2.5287  1.8703  1.1051  0.9668  0.9668

 Free energy of the ion-electron system (eV)
  ---------------------------------------------------
  alpha Z        PSCENC =         0.02803141
  Ewald energy   TEWEN  =       122.42843087
  -Hartree energ DENC   =      -515.93955533
  -exchange      EXHF   =         0.00000000
  -V(xc)+E(xc)   XCENC  =        33.64775496
  PAW double counting   =       564.08469227     -565.82902788
  entropy T*S    EENTRO =        -0.00000000
  eigenvalues    EBANDS =      -109.86152718
  atomic energy  EATOM  =       457.26981990
  Solvation  Ediel_sol  =         0.00000000
  ---------------------------------------------------
  free energy    TOTEN  =       -14.17138097 eV

  energy without entropy =      -14.17138097  energy(sigma->0) =      -14.17138097


--------------------------------------------------------------------------------------------------------




--------------------------------------- Iteration     11(   9)  ---------------------------------------


    POTLOK:  cpu time      0.0634: real time      0.0645
    SETDIJ:  cpu time      0.0907: real time      0.0913
     EDDAV:  cpu time      0.1764: real time      0.1783
       DOS:  cpu time      0.0006: real time      0.0006
    CHARGE:  cpu time      0.0987: real time      0.1001
    MIXING:  cpu time      0.0142: real time      0.0142
    --------------------------------------------
      LOOP:  cpu time      0.4439: real time      0.4490

 eigenvalue-minimisations  :    64
 total energy-change (2. order) :-0.2176103E-04  (-0.1798383E-06)
 number of electron       8.0000001 magnetization 
 augmentation part        0.6847859 magnetization 

 Broyden mixing:
  rms(total) = 0.46625E-04    rms(broyden)= 0.46446E-04
  rms(prec ) = 0.69382E-04
  weight for this iteration     100.00

 eigenvalues of (default mixing * dielectric matrix)
  average eigenvalue GAMMA=   2.1758
  5.6502  3.0258  2.4753  1.8737  1.3562  0.9448  1.0029  1.0773

 Free energy of the ion-electron system (eV)
  ---------------------------------------------------
  alpha Z        PSCENC =         0.02803141
  Ewald energy   TEWEN  =       122.42843087
  -Hartree energ DENC   =      -515.94056466
  -exchange      EXHF   =         0.00000000
  -V(xc)+E(xc)   XCENC  =        33.64780598
  PAW double counting   =       564.09213716     -565.83653690
  entropy T*S    EENTRO =        -0.00000000
  eigenvalues    EBANDS =      -109.86052649
  atomic energy  EATOM  =       457.26981990
  Solvation  Ediel_sol  =         0.00000000
  ---------------------------------------------------
  free energy    TOTEN  =       -14.17140273 eV

  energy without entropy =      -14.17140273  energy(sigma->0) =      -14.17140273


--------------------------------------------------------------------------------------------------------




--------------------------------------- Iteration     11(  10)  ---------------------------------------


    POTLOK:  cpu time      0.1150: real time      0.1158
    SETDIJ:  cpu time      0.0901: real time      0.0907
     EDDAV:  cpu time      0.3173: real time      0.3204
       DOS:  cpu time      0.0005: real time      0.0010
    CHARGE:  cpu time      0.0640: real time      0.0647
    MIXING:  cpu time      0.0025: real time      0.0025
    --------------------------------------------
      LOOP:  cpu time      0.5895: real time      0.5952

 eigenvalue-minimisations  :   128
 total energy-change (2. order) :-0.7315813E-05  (-0.3117706E-07)
 number of electron       8.0000001 magnetization 
 augmentation part        0.6847922 magnetization 

 Broyden mixing:
  rms(total) = 0.23734E-04    rms(broyden)= 0.23417E-04
  rms(prec ) = 0.37134E-04
  weight for this iteration     100.00

 eigenvalues of (default mixing * dielectric matrix)
  average eigenvalue GAMMA=   2.3220
  6.7959  3.3441  2.6361  2.1073  1.9702  0.9432  0.9637  1.0686  1.0686

 Free energy of the ion-electron system (eV)
  ---------------------------------------------------
  alpha Z        PSCENC =         0.02803141
  Ewald energy   TEWEN  =       122.42843087
  -Hartree energ DENC   =      -515.93934443
  -exchange      EXHF   =         0.00000000
  -V(xc)+E(xc)   XCENC  =        33.64773531
  PAW double counting   =       564.08967243     -565.83406282
  entropy T*S    EENTRO =        -0.00000000
  eigenvalues    EBANDS =      -109.86169272
  atomic energy  EATOM  =       457.26981990
  Solvation  Ediel_sol  =         0.00000000
  ---------------------------------------------------
  free energy    TOTEN  =       -14.17141005 eV

  energy without entropy =      -14.17141005  energy(sigma->0) =      -14.17141005


--------------------------------------------------------------------------------------------------------




--------------------------------------- Iteration     11(  11)  ---------------------------------------


    POTLOK:  cpu time      0.0661: real time      0.0667
    SETDIJ:  cpu time      0.0900: real time      0.0906
     EDDAV:  cpu time      0.3158: real time      0.3194
       DOS:  cpu time      0.0006: real time      0.0011
    CHARGE:  cpu time      0.0639: real time      0.0647
    MIXING:  cpu time      0.0026: real time      0.0027
    --------------------------------------------
      LOOP:  cpu time      0.5391: real time      0.5452

 eigenvalue-minimisations  :   128
 total energy-change (2. order) :-0.4765144E-05  (-0.1136763E-07)
 number of electron       8.0000001 magnetization 
 augmentation part        0.6847898 magnetization 

 Broyden mixing:
  rms(total) = 0.99802E-05    rms(broyden)= 0.92461E-05
  rms(prec ) = 0.16977E-04
  weight for this iteration     100.00

 eigenvalues of (default mixing * dielectric matrix)
  average eigenvalue GAMMA=   2.4105
  7.5579  3.9324  2.7014  2.3963  1.7932  1.6975  1.0645  1.0645  0.9319  0.9651

 Free energy of the ion-electron system (eV)
  ---------------------------------------------------
  alpha Z        PSCENC =         0.02803141
  Ewald energy   TEWEN  =       122.42843087
  -Hartree energ DENC   =      -515.93979744
  -exchange      EXHF   =         0.00000000
  -V(xc)+E(xc)   XCENC  =        33.64775436
  PAW double counting   =       564.09201391     -565.83639764
  entropy T*S    EENTRO =        -0.00000000
  eigenvalues    EBANDS =      -109.86127020
  atomic energy  EATOM  =       457.26981990
  Solvation  Ediel_sol  =         0.00000000
  ---------------------------------------------------
  free energy    TOTEN  =       -14.17141482 eV

  energy without entropy =      -14.17141482  energy(sigma->0) =      -14.17141482


--------------------------------------------------------------------------------------------------------




--------------------------------------- Iteration     11(  12)  ---------------------------------------


    POTLOK:  cpu time      0.0660: real time      0.0666
    SETDIJ:  cpu time      0.0897: real time      0.0903
     EDDAV:  cpu time      0.3213: real time      0.3245
       DOS:  cpu time      0.0006: real time      0.0006
    CHARGE:  cpu time      0.0631: real time      0.0643
    MIXING:  cpu time      0.0033: real time      0.0034
    --------------------------------------------
      LOOP:  cpu time      0.5441: real time      0.5496

 eigenvalue-minimisations  :   128
 total energy-change (2. order) :-0.2139382E-05  (-0.2852010E-08)
 number of electron       8.0000001 magnetization 
 augmentation part        0.6847902 magnetization 

 Broyden mixing:
  rms(total) = 0.67812E-05    rms(broyden)= 0.56578E-05
  rms(prec ) = 0.96432E-05
  weight for this iteration     100.00
  WARNING: grid for Broyden might be to small

 eigenvalues of (default mixing * dielectric matrix)
  average eigenvalue GAMMA=   2.4918
  8.1936  4.5777  2.9516  2.5560  2.0942  1.9168  0.9285  0.9915  1.0315  1.0844
  1.0844

 Free energy of the ion-electron system (eV)
  ---------------------------------------------------
  alpha Z        PSCENC =         0.02803141
  Ewald energy   TEWEN  =       122.42843087
  -Hartree energ DENC   =      -515.93982300
  -exchange      EXHF   =         0.00000000
  -V(xc)+E(xc)   XCENC  =        33.64775378
  PAW double counting   =       564.09074844     -565.83512655
  entropy T*S    EENTRO =        -0.00000000
  eigenvalues    EBANDS =      -109.86125182
  atomic energy  EATOM  =       457.26981990
  Solvation  Ediel_sol  =         0.00000000
  ---------------------------------------------------
  free energy    TOTEN  =       -14.17141696 eV

  energy without entropy =      -14.17141696  energy(sigma->0) =      -14.17141696


--------------------------------------------------------------------------------------------------------




--------------------------------------- Iteration     11(  13)  ---------------------------------------


    POTLOK:  cpu time      0.0658: real time      0.0664
    SETDIJ:  cpu time      0.0902: real time      0.0909
     EDDAV:  cpu time      0.3258: real time      0.3293
       DOS:  cpu time      0.0008: real time      0.0008
    CHARGE:  cpu time      0.0649: real time      0.0662
    MIXING:  cpu time      0.0038: real time      0.0039
    --------------------------------------------
      LOOP:  cpu time      0.5514: real time      0.5575

 eigenvalue-minimisations  :   128
 total energy-change (2. order) :-0.1060407E-05  (-0.8522516E-09)
 number of electron       8.0000001 magnetization 
 augmentation part        0.6847902 magnetization 

 Broyden mixing:
  rms(total) = 0.49493E-05    rms(broyden)= 0.32467E-05
  rms(prec ) = 0.53358E-05
  weight for this iteration     100.00
  WARNING: grid for Broyden might be to small

 eigenvalues of (default mixing * dielectric matrix)
  average eigenvalue GAMMA=   2.5924
  8.6801  5.0474  3.3392  2.6402  2.6402  1.8561  1.8561  1.0835  1.0835  0.9215
  0.9803  0.9803

 Free energy of the ion-electron system (eV)
  ---------------------------------------------------
  alpha Z        PSCENC =         0.02803141
  Ewald energy   TEWEN  =       122.42843087
  -Hartree energ DENC   =      -515.93982987
  -exchange      EXHF   =         0.00000000
  -V(xc)+E(xc)   XCENC  =        33.64775346
  PAW double counting   =       564.09028771     -565.83466562
  entropy T*S    EENTRO =        -0.00000000
  eigenvalues    EBANDS =      -109.86124588
  atomic energy  EATOM  =       457.26981990
  Solvation  Ediel_sol  =         0.00000000
  ---------------------------------------------------
  free energy    TOTEN  =       -14.17141802 eV

  energy without entropy =      -14.17141802  energy(sigma->0) =      -14.17141802


--------------------------------------------------------------------------------------------------------




--------------------------------------- Iteration     11(  14)  ---------------------------------------


    POTLOK:  cpu time      0.0654: real time      0.0663
    SETDIJ:  cpu time      0.0905: real time      0.0912
     EDDAV:  cpu time      0.3208: real time      0.3243
       DOS:  cpu time      0.0004: real time      0.0010
    CHARGE:  cpu time      0.0640: real time      0.0653
    MIXING:  cpu time      0.0033: real time      0.0033
    --------------------------------------------
      LOOP:  cpu time      0.5443: real time      0.5514

 eigenvalue-minimisations  :   128
 total energy-change (2. order) :-0.6946071E-06  (-0.5617746E-09)
 number of electron       8.0000001 magnetization 
 augmentation part        0.6847900 magnetization 

 Broyden mixing:
  rms(total) = 0.43639E-05    rms(broyden)= 0.22561E-05
  rms(prec ) = 0.28632E-05
  weight for this iteration     100.00
  WARNING: grid for Broyden might be to small

 eigenvalues of (default mixing * dielectric matrix)
  average eigenvalue GAMMA=   2.5763
  9.0299  5.5912  3.6748  2.7415  2.4448  2.0115  1.8922  1.0888  1.0888  1.0595
  0.9937  0.9231  0.9523

 Free energy of the ion-electron system (eV)
  ---------------------------------------------------
  alpha Z        PSCENC =         0.02803141
  Ewald energy   TEWEN  =       122.42843087
  -Hartree energ DENC   =      -515.93981177
  -exchange      EXHF   =         0.00000000
  -V(xc)+E(xc)   XCENC  =        33.64775221
  PAW double counting   =       564.09074902     -565.83513182
  entropy T*S    EENTRO =        -0.00000000
  eigenvalues    EBANDS =      -109.86125854
  atomic energy  EATOM  =       457.26981990
  Solvation  Ediel_sol  =         0.00000000
  ---------------------------------------------------
  free energy    TOTEN  =       -14.17141871 eV

  energy without entropy =      -14.17141871  energy(sigma->0) =      -14.17141871


--------------------------------------------------------------------------------------------------------




--------------------------------------- Iteration     11(  15)  ---------------------------------------


    POTLOK:  cpu time      0.0667: real time      0.0679
    SETDIJ:  cpu time      0.0902: real time      0.0909
     EDDAV:  cpu time      0.1686: real time      0.1704
       DOS:  cpu time      0.0005: real time      0.0005
    CHARGE:  cpu time      0.0641: real time      0.0653
    MIXING:  cpu time      0.0031: real time      0.0031
    --------------------------------------------
      LOOP:  cpu time      0.3931: real time      0.3981

 eigenvalue-minimisations  :    64
 total energy-change (2. order) :-0.1178359E-06  (-0.2885159E-10)
 number of electron       8.0000001 magnetization 
 augmentation part        0.6847902 magnetization 

 Broyden mixing:
  rms(total) = 0.38917E-05    rms(broyden)= 0.10926E-05
  rms(prec ) = 0.16232E-05
  weight for this iteration     100.00
  WARNING: grid for Broyden might be to small

 eigenvalues of (default mixing * dielectric matrix)
  average eigenvalue GAMMA=   2.7498
  9.4668  6.4563  4.3199  3.2243  2.6928  2.3540  2.0078  1.8537  0.9285  1.0693
  1.0693  0.9834  0.9834  1.0884

 Free energy of the ion-electron system (eV)
  ---------------------------------------------------
  alpha Z        PSCENC =         0.02803141
  Ewald energy   TEWEN  =       122.42843087
  -Hartree energ DENC   =      -515.93977366
  -exchange      EXHF   =         0.00000000
  -V(xc)+E(xc)   XCENC  =        33.64775015
  PAW double counting   =       564.09058788     -565.83496946
  entropy T*S    EENTRO =        -0.00000000
  eigenvalues    EBANDS =      -109.86129592
  atomic energy  EATOM  =       457.26981990
  Solvation  Ediel_sol  =         0.00000000
  ---------------------------------------------------
  free energy    TOTEN  =       -14.17141883 eV

  energy without entropy =      -14.17141883  energy(sigma->0) =      -14.17141883


--------------------------------------------------------------------------------------------------------




--------------------------------------- Iteration     11(  16)  ---------------------------------------


    POTLOK:  cpu time      0.0666: real time      0.0678
    SETDIJ:  cpu time      0.0907: real time      0.0913
     EDDAV:  cpu time      0.3169: real time      0.3202
       DOS:  cpu time      0.0006: real time      0.0006
    CHARGE:  cpu time      0.0642: real time      0.0656
    MIXING:  cpu time      0.0040: real time      0.0040
    --------------------------------------------
      LOOP:  cpu time      0.5429: real time      0.5496

 eigenvalue-minimisations  :   128
 total energy-change (2. order) :-0.1871986E-06  (-0.6807532E-10)
 number of electron       8.0000001 magnetization 
 augmentation part        0.6847902 magnetization 

 Broyden mixing:
  rms(total) = 0.37673E-05    rms(broyden)= 0.49143E-06
  rms(prec ) = 0.63101E-06
  weight for this iteration     100.00
  WARNING: grid for Broyden might be to small

 eigenvalues of (default mixing * dielectric matrix)
  average eigenvalue GAMMA=   2.6610
  9.4871  6.6632  4.4294  3.1750  2.6082  2.4033  1.9595  1.8624  1.1622  1.1622
  1.0585  1.0585  0.9271  0.9795  0.9795

 Free energy of the ion-electron system (eV)
  ---------------------------------------------------
  alpha Z        PSCENC =         0.02803141
  Ewald energy   TEWEN  =       122.42843087
  -Hartree energ DENC   =      -515.93977223
  -exchange      EXHF   =         0.00000000
  -V(xc)+E(xc)   XCENC  =        33.64775012
  PAW double counting   =       564.09067327     -565.83505349
  entropy T*S    EENTRO =        -0.00000000
  eigenvalues    EBANDS =      -109.86129886
  atomic energy  EATOM  =       457.26981990
  Solvation  Ediel_sol  =         0.00000000
  ---------------------------------------------------
  free energy    TOTEN  =       -14.17141902 eV

  energy without entropy =      -14.17141902  energy(sigma->0) =      -14.17141902


--------------------------------------------------------------------------------------------------------




--------------------------------------- Iteration     11(  17)  ---------------------------------------


    POTLOK:  cpu time      0.0651: real time      0.0657
    SETDIJ:  cpu time      0.0900: real time      0.0907
     EDDAV:  cpu time      0.1712: real time      0.1731
       DOS:  cpu time      0.0007: real time      0.0007
    CHARGE:  cpu time      0.1325: real time      0.1339
    MIXING:  cpu time      0.0035: real time      0.0036
    --------------------------------------------
      LOOP:  cpu time      0.4630: real time      0.4676

 eigenvalue-minimisations  :    64
 total energy-change (2. order) :-0.2153996E-07  (-0.1515055E-10)
 number of electron       8.0000001 magnetization 
 augmentation part        0.6847901 magnetization 

 Broyden mixing:
  rms(total) = 0.37466E-05    rms(broyden)= 0.29388E-06
  rms(prec ) = 0.40849E-06
  weight for this iteration     100.00
  WARNING: grid for Broyden might be to small

 eigenvalues of (default mixing * dielectric matrix)
  average eigenvalue GAMMA=   2.7791
  9.7786  7.1335  5.0369  3.6867  2.9649  2.5836  2.3061  1.9989  1.8117  1.1629
  1.0727  1.0727  0.9233  0.9989  0.9674  0.9674

 Free energy of the ion-electron system (eV)
  ---------------------------------------------------
  alpha Z        PSCENC =         0.02803141
  Ewald energy   TEWEN  =       122.42843087
  -Hartree energ DENC   =      -515.93978119
  -exchange      EXHF   =         0.00000000
  -V(xc)+E(xc)   XCENC  =        33.64775062
  PAW double counting   =       564.09064647     -565.83502712
  entropy T*S    EENTRO =        -0.00000000
  eigenvalues    EBANDS =      -109.86129001
  atomic energy  EATOM  =       457.26981990
  Solvation  Ediel_sol  =         0.00000000
  ---------------------------------------------------
  free energy    TOTEN  =       -14.17141904 eV

  energy without entropy =      -14.17141904  energy(sigma->0) =      -14.17141904


--------------------------------------------------------------------------------------------------------




--------------------------------------- Iteration     11(  18)  ---------------------------------------


    POTLOK:  cpu time      0.0653: real time      0.0665
    SETDIJ:  cpu time      0.1210: real time      0.1645
     EDDAV:  cpu time      1.0367: real time      1.0955
       DOS:  cpu time      0.0005: real time      0.0005
    CHARGE:  cpu time      0.0646: real time      0.0658
    MIXING:  cpu time      0.0035: real time      0.0035
    --------------------------------------------
      LOOP:  cpu time      1.2916: real time      1.3963

 eigenvalue-minimisations  :   128
 total energy-change (2. order) :-0.2788397E-07  (-0.1636025E-10)
 number of electron       8.0000001 magnetization 
 augmentation part        0.6847902 magnetization 

 Broyden mixing:
  rms(total) = 0.37361E-05    rms(broyden)= 0.88731E-07
  rms(prec ) = 0.14126E-06
  weight for this iteration     100.00
  WARNING: grid for Broyden might be to small

 eigenvalues of (default mixing * dielectric matrix)
  average eigenvalue GAMMA=   2.7358
  9.8223  7.2278  5.0948  3.8013  2.9368  2.6595  2.3622  1.9036  1.9036  1.5485
  1.2184  1.0742  1.0742  0.9253  0.9791  0.9791  0.9980

 Free energy of the ion-electron system (eV)
  ---------------------------------------------------
  alpha Z        PSCENC =         0.02803141
  Ewald energy   TEWEN  =       122.42843087
  -Hartree energ DENC   =      -515.93977825
  -exchange      EXHF   =         0.00000000
  -V(xc)+E(xc)   XCENC  =        33.64775046
  PAW double counting   =       564.09060494     -565.83498563
  entropy T*S    EENTRO =        -0.00000000
  eigenvalues    EBANDS =      -109.86129277
  atomic energy  EATOM  =       457.26981990
  Solvation  Ediel_sol  =         0.00000000
  ---------------------------------------------------
  free energy    TOTEN  =       -14.17141906 eV

  energy without entropy =      -14.17141906  energy(sigma->0) =      -14.17141906


--------------------------------------------------------------------------------------------------------




--------------------------------------- Iteration     11(  19)  ---------------------------------------


    POTLOK:  cpu time      0.0736: real time      0.0742
    SETDIJ:  cpu time      0.0897: real time      0.0906
     EDDAV:  cpu time      0.3107: real time      0.3132
       DOS:  cpu time      0.0004: real time      0.0004
    --------------------------------------------
      LOOP:  cpu time      0.4743: real time      0.4783

 eigenvalue-minimisations  :    64
 total energy-change (2. order) :-0.3639173E-08  (-0.1488765E-10)
 number of electron       8.0000001 magnetization 
 augmentation part        0.6847902 magnetization 

 Free energy of the ion-electron system (eV)
  ---------------------------------------------------
  alpha Z        PSCENC =         0.02803141
  Ewald energy   TEWEN  =       122.42843087
  -Hartree energ DENC   =      -515.93977805
  -exchange      EXHF   =         0.00000000
  -V(xc)+E(xc)   XCENC  =        33.64775045
  PAW double counting   =       564.09062160     -565.83500233
  entropy T*S    EENTRO =        -0.00000000
  eigenvalues    EBANDS =      -109.86129293
  atomic energy  EATOM  =       457.26981990
  Solvation  Ediel_sol  =         0.00000000
  ---------------------------------------------------
  free energy    TOTEN  =       -14.17141907 eV

  energy without entropy =      -14.17141907  energy(sigma->0) =      -14.17141907


--------------------------------------------------------------------------------------------------------




 average (electrostatic) potential at core
  the test charge radii are     0.5201  0.7215
  (the norm of the test charge is              1.0000)
       1 -44.8462       2 -44.9397       3 -80.7626



 E-fermi :  -7.1364     XC(G=0):  -0.1046     alpha+bet : -0.0163

 val. band max:       -7.1846323116   @ k =   0.0000   0.0000   0.0000
 cond. band min:      -1.0611243276   @ k =   0.0000   0.0000   0.0000
 fundamental gap:      6.1235079840
 Fermi energy:        -7.1363668798

 k-point     1 :       0.0000    0.0000    0.0000
  band No.  band energies     occupation 
      1     -25.3983      2.00000
      2     -13.0257      2.00000
      3      -9.3220      2.00000
      4      -7.1846      2.00000
      5      -1.0611      0.00000
      6       0.0116      0.00000
      7       0.2014      0.00000
      8       0.2971      0.00000
      9       0.3124      0.00000
     10       0.3416      0.00000
     11       0.3478      0.00000
     12       0.4627      0.00000
     13       0.4998      0.00000
     14       0.6016      0.00000
     15       0.6233      0.00000
     16       0.7074      0.00000
     17       0.7080      0.00000
     18       0.7133      0.00000
     19       0.7175      0.00000
     20       0.7218      0.00000
     21       0.7295      0.00000
     22       0.7315      0.00000
     23       0.7367      0.00000
     24       0.9374      0.00000
     25       0.9405      0.00000
     26       1.0204      0.00000
     27       1.0351      0.00000
     28       1.0810      0.00000
     29       1.0850      0.00000
     30       1.0885      0.00000
     31       1.1043      0.00000
     32       1.2550      0.00000


--------------------------------------------------------------------------------------------------------


 soft charge-density along one line, spin component           1
         0         1         2         3         4         5         6         7         8         9
 total charge-density along one line

 pseudopotential strength for first ion, spin component:           1
 -2.379  -4.110  -0.023   0.000   0.002
 -4.110  -7.012  -0.042   0.000   0.005
 -0.023  -0.042  -0.283  -0.000  -0.005
  0.000   0.000  -0.000  -0.327  -0.000
  0.002   0.005  -0.005  -0.000  -0.325
 total augmentation occupancy for first ion, spin component:           1
  3.968  -0.866   0.707  -0.000  -0.104
 -0.866   0.237  -0.151   0.000   0.027
  0.707  -0.151   0.126  -0.000  -0.017
 -0.000   0.000  -0.000   0.038  -0.000
 -0.104   0.027  -0.017  -0.000   0.028


------------------------ aborting loop because EDIFF is reached ----------------------------------------


    CHARGE:  cpu time      0.0639: real time      0.0647
    FORLOC:  cpu time      0.0026: real time      0.0026
    FORNL :  cpu time      0.2445: real time      0.2475
    STRESS:  cpu time      0.9291: real time      0.9394
    FORCOR:  cpu time      0.0557: real time      0.0562
    FORHAR:  cpu time      0.0189: real time      0.0190
    MIXING:  cpu time      0.0027: real time      0.0028
    OFIELD:  cpu time      0.0000: real time      0.0000

 ---------------------------------------------------------------------------------------------

         DFTD3 V3.0 Rev 1        
 Edisp (eV)   -0.00123

 E6    (eV) :    -0.0012
 E8    (eV) :    -0.0001
 % E8        :  5.25
    FORVDW:  cpu time      0.0077: real time      0.0079

  FORCE on cell =-STRESS in cart. coord.  units (eV):
  Direction    XX          YY          ZZ          XY          YZ          ZX
  --------------------------------------------------------------------------------------
  Alpha Z     0.02803     0.02803     0.02803
  Ewald      59.21684    85.02786   -21.81626    21.40883    -0.00009     0.00019
  Hartree   175.29741   179.82450   160.81787     3.57090    -0.00002     0.00003
  E(xc)     -36.33956   -36.21219   -36.80152     0.10173    -0.00000     0.00000
  Local    -319.59246  -342.72430  -248.96308   -18.80421     0.00008    -0.00017
  n-local   -30.81491   -30.25366   -30.85342     0.36427     0.00000     0.00000
  augment     6.42659     5.95320     8.09149    -0.38684     0.00000    -0.00000
  Kinetic   145.32934   137.77974   168.66695    -6.01132     0.00003    -0.00006
  Fock        0.00000     0.00000     0.00000     0.00000     0.00000     0.00000
  vdW         0.00247     0.00731    -0.00000     0.00383     0.00000     0.00000
  -------------------------------------------------------------------------------------
  Total      -0.44625    -0.56952    -0.82993     0.24719     0.00000     0.00000
  in kB      -0.08937    -0.11406    -0.16621     0.04951     0.00000     0.00000
  external pressure =       -0.12 kB  Pullay stress =        0.00 kB


 VOLUME and BASIS-vectors are now :
 -----------------------------------------------------------------------------
  energy-cutoff  :      400.00
  volume of cell :     8000.00
      direct lattice vectors                 reciprocal lattice vectors
    20.000000000  0.000000000  0.000000000     0.050000000  0.000000000  0.000000000
     0.000000000 20.000000000  0.000000000     0.000000000  0.050000000  0.000000000
     0.000000000  0.000000000 20.000000000     0.000000000  0.000000000  0.050000000

  length of vectors
    20.000000000 20.000000000 20.000000000     0.050000000  0.050000000  0.050000000


 FORCES acting on ions
    electron-ion (+dipol)            ewald-force                    non-local-force                 convergence-correction
 -----------------------------------------------------------------------------------------------
   -.108E+02 0.872E+02 -.149E-03   0.117E+02 -.954E+02 0.163E-03   -.107E+01 0.818E+01 -.131E-04   0.924E-07 -.285E-07 -.135E-09
   -.806E+02 -.371E+02 -.168E-03   0.886E+02 0.408E+02 0.185E-03   -.774E+01 -.349E+01 -.167E-04   -.364E-07 -.721E-07 -.382E-10
   0.566E+02 -.308E+02 0.200E-03   -.100E+03 0.546E+02 -.348E-03   0.435E+02 -.240E+02 0.148E-03   0.211E-05 -.232E-06 -.121E-08
 -----------------------------------------------------------------------------------------------
   -.347E+02 0.193E+02 -.117E-03   0.000E+00 0.000E+00 0.401E-17   0.347E+02 -.193E+02 0.118E-03   0.216E-05 -.332E-06 -.139E-08


 POSITION                                       TOTAL-FORCE (eV/Angst)
 -----------------------------------------------------------------------------------
      9.80755      9.62347     10.00000        -0.091453     -0.041064      0.000000
     10.54234     10.95263     10.00000         0.355153      0.251736     -0.000000
      9.65011     10.58390     10.00000        -0.263700     -0.210672      0.000000
 -----------------------------------------------------------------------------------
    total drift:                               -0.008790      0.005174      0.000002


--------------------------------------------------------------------------------------------------------



  FREE ENERGIE OF THE ION-ELECTRON SYSTEM (eV)
  ---------------------------------------------------
  free  energy   TOTEN  =       -14.17265308 eV

  energy  without entropy=      -14.17265308  energy(sigma->0) =      -14.17265308

 d Force = 0.1395510E-03[-0.101E-01, 0.103E-01]  d Energy =-0.4674959E-05 0.144E-03
 d Force =-0.1668567E+01[-0.163E+01,-0.170E+01]  d Ewald  =-0.1669891E+01 0.132E-02


--------------------------------------------------------------------------------------------------------


    POTLOK:  cpu time      0.1571: real time      0.1582


--------------------------------------------------------------------------------------------------------


 Finite differences progress:
  Degree of freedom:   5/  9
  Displacement:        2/  2
  Total:              10/ 18
    WAVPRE:  cpu time      0.0099: real time      0.0113
    FEWALD:  cpu time      0.0003: real time      0.0003
    ORTHCH:  cpu time      0.0145: real time      0.0147
     LOOP+:  cpu time     11.8797: real time     12.1060


--------------------------------------- Ionic step       12  -------------------------------------------




--------------------------------------- Iteration     12(   1)  ---------------------------------------


    POTLOK:  cpu time      0.0632: real time      0.0644
    SETDIJ:  cpu time      0.0899: real time      0.0904
     EDDAV:  cpu time      0.1683: real time      0.1701
       DOS:  cpu time      0.0007: real time      0.0007
    CHARGE:  cpu time      0.0646: real time      0.0658
    MIXING:  cpu time      0.0028: real time      0.0028
    --------------------------------------------
      LOOP:  cpu time      0.3894: real time      0.3942

 eigenvalue-minimisations  :    64
 total energy-change (2. order) :-0.2178256E-02  (-0.2578567E-01)
 number of electron       8.0000001 magnetization 
 augmentation part        0.6830736 magnetization 

 Broyden mixing:
  rms(total) = 0.16754E-01    rms(broyden)= 0.16668E-01
  rms(prec ) = 0.17256E-01
  weight for this iteration     100.00

 Free energy of the ion-electron system (eV)
  ---------------------------------------------------
  alpha Z        PSCENC =         0.02803141
  Ewald energy   TEWEN  =       121.58268013
  -Hartree energ DENC   =      -515.49011177
  -exchange      EXHF   =         0.00000000
  -V(xc)+E(xc)   XCENC  =        33.62533018
  PAW double counting   =       564.09063024     -565.83501097
  entropy T*S    EENTRO =        -0.00000000
  eigenvalues    EBANDS =      -109.44496644
  atomic energy  EATOM  =       457.26981990
  Solvation  Ediel_sol  =         0.00000000
  ---------------------------------------------------
  free energy    TOTEN  =       -14.17359732 eV

  energy without entropy =      -14.17359732  energy(sigma->0) =      -14.17359732


--------------------------------------------------------------------------------------------------------




--------------------------------------- Iteration     12(   2)  ---------------------------------------


    POTLOK:  cpu time      0.0684: real time      0.0689
    SETDIJ:  cpu time      0.0908: real time      0.0915
     EDDAV:  cpu time      0.1687: real time      0.1704
       DOS:  cpu time      0.0007: real time      0.0012
    CHARGE:  cpu time      0.0631: real time      0.0638
    MIXING:  cpu time      0.0069: real time      0.0069
    --------------------------------------------
      LOOP:  cpu time      0.3985: real time      0.4027

 eigenvalue-minimisations  :    64
 total energy-change (2. order) :-0.3050932E-04  (-0.2176048E-03)
 number of electron       8.0000001 magnetization 
 augmentation part        0.6835523 magnetization 

 Broyden mixing:
  rms(total) = 0.98794E-02    rms(broyden)= 0.98717E-02
  rms(prec ) = 0.10215E-01
  weight for this iteration     100.00

 eigenvalues of (default mixing * dielectric matrix)
  average eigenvalue GAMMA=   1.9629
  1.9629

 Free energy of the ion-electron system (eV)
  ---------------------------------------------------
  alpha Z        PSCENC =         0.02803141
  Ewald energy   TEWEN  =       121.58268013
  -Hartree energ DENC   =      -515.34608036
  -exchange      EXHF   =         0.00000000
  -V(xc)+E(xc)   XCENC  =        33.61770191
  PAW double counting   =       562.94036189     -564.68384899
  entropy T*S    EENTRO =        -0.00000000
  eigenvalues    EBANDS =      -109.58229371
  atomic energy  EATOM  =       457.26981990
  Solvation  Ediel_sol  =         0.00000000
  ---------------------------------------------------
  free energy    TOTEN  =       -14.17362783 eV

  energy without entropy =      -14.17362783  energy(sigma->0) =      -14.17362783


--------------------------------------------------------------------------------------------------------




--------------------------------------- Iteration     12(   3)  ---------------------------------------


    POTLOK:  cpu time      0.0645: real time      0.0650
    SETDIJ:  cpu time      0.0900: real time      0.0906
     EDDAV:  cpu time      0.2362: real time      0.2390
       DOS:  cpu time      0.0006: real time      0.0006
    CHARGE:  cpu time      0.0642: real time      0.0654
    MIXING:  cpu time      0.0020: real time      0.0026
    --------------------------------------------
      LOOP:  cpu time      0.4574: real time      0.4631

 eigenvalue-minimisations  :    96
 total energy-change (2. order) :-0.8904938E-04  (-0.1752809E-04)
 number of electron       8.0000001 magnetization 
 augmentation part        0.6838019 magnetization 

 Broyden mixing:
  rms(total) = 0.25906E-02    rms(broyden)= 0.25882E-02
  rms(prec ) = 0.27567E-02
  weight for this iteration     100.00

 eigenvalues of (default mixing * dielectric matrix)
  average eigenvalue GAMMA=   1.7762
  1.1377  2.4147

 Free energy of the ion-electron system (eV)
  ---------------------------------------------------
  alpha Z        PSCENC =         0.02803141
  Ewald energy   TEWEN  =       121.58268013
  -Hartree energ DENC   =      -515.28980348
  -exchange      EXHF   =         0.00000000
  -V(xc)+E(xc)   XCENC  =        33.61500271
  PAW double counting   =       561.86250508     -563.60583265
  entropy T*S    EENTRO =        -0.00000000
  eigenvalues    EBANDS =      -109.63611998
  atomic energy  EATOM  =       457.26981990
  Solvation  Ediel_sol  =         0.00000000
  ---------------------------------------------------
  free energy    TOTEN  =       -14.17371688 eV

  energy without entropy =      -14.17371688  energy(sigma->0) =      -14.17371688


--------------------------------------------------------------------------------------------------------




--------------------------------------- Iteration     12(   4)  ---------------------------------------


    POTLOK:  cpu time      0.0637: real time      0.0642
    SETDIJ:  cpu time      0.0901: real time      0.0907
     EDDAV:  cpu time      0.3166: real time      0.3199
       DOS:  cpu time      0.0005: real time      0.0005
    CHARGE:  cpu time      0.0635: real time      0.0647
    MIXING:  cpu time      0.0039: real time      0.0039
    --------------------------------------------
      LOOP:  cpu time      0.5382: real time      0.5439

 eigenvalue-minimisations  :   128
 total energy-change (2. order) :-0.1468009E-04  (-0.3735349E-05)
 number of electron       8.0000001 magnetization 
 augmentation part        0.6836254 magnetization 

 Broyden mixing:
  rms(total) = 0.72268E-03    rms(broyden)= 0.72210E-03
  rms(prec ) = 0.87394E-03
  weight for this iteration     100.00

 eigenvalues of (default mixing * dielectric matrix)
  average eigenvalue GAMMA=   1.5296
  2.5151  1.0369  1.0369

 Free energy of the ion-electron system (eV)
  ---------------------------------------------------
  alpha Z        PSCENC =         0.02803141
  Ewald energy   TEWEN  =       121.58268013
  -Hartree energ DENC   =      -515.31708680
  -exchange      EXHF   =         0.00000000
  -V(xc)+E(xc)   XCENC  =        33.61659309
  PAW double counting   =       561.64672284     -563.39046017
  entropy T*S    EENTRO =        -0.00000000
  eigenvalues    EBANDS =      -109.61003196
  atomic energy  EATOM  =       457.26981990
  Solvation  Ediel_sol  =         0.00000000
  ---------------------------------------------------
  free energy    TOTEN  =       -14.17373156 eV

  energy without entropy =      -14.17373156  energy(sigma->0) =      -14.17373156


--------------------------------------------------------------------------------------------------------




--------------------------------------- Iteration     12(   5)  ---------------------------------------


    POTLOK:  cpu time      0.0642: real time      0.0651
    SETDIJ:  cpu time      0.0899: real time      0.0906
     EDDAV:  cpu time      0.7711: real time      0.7765
       DOS:  cpu time      0.0216: real time      0.0217
    CHARGE:  cpu time      0.2591: real time      0.2611
    MIXING:  cpu time      0.0466: real time      0.0468
    --------------------------------------------
      LOOP:  cpu time      1.2525: real time      1.2619

 eigenvalue-minimisations  :   128
 total energy-change (2. order) :-0.1329878E-04  (-0.3032765E-06)
 number of electron       8.0000001 magnetization 
 augmentation part        0.6836965 magnetization 

 Broyden mixing:
  rms(total) = 0.39949E-03    rms(broyden)= 0.39933E-03
  rms(prec ) = 0.54299E-03
  weight for this iteration     100.00

 eigenvalues of (default mixing * dielectric matrix)
  average eigenvalue GAMMA=   1.7088
  2.6392  2.2500  1.0412  0.9048

 Free energy of the ion-electron system (eV)
  ---------------------------------------------------
  alpha Z        PSCENC =         0.02803141
  Ewald energy   TEWEN  =       121.58268013
  -Hartree energ DENC   =      -515.30887709
  -exchange      EXHF   =         0.00000000
  -V(xc)+E(xc)   XCENC  =        33.61612564
  PAW double counting   =       561.60039831     -563.34406050
  entropy T*S    EENTRO =        -0.00000000
  eigenvalues    EBANDS =      -109.61786265
  atomic energy  EATOM  =       457.26981990
  Solvation  Ediel_sol  =         0.00000000
  ---------------------------------------------------
  free energy    TOTEN  =       -14.17374486 eV

  energy without entropy =      -14.17374486  energy(sigma->0) =      -14.17374486


--------------------------------------------------------------------------------------------------------




--------------------------------------- Iteration     12(   6)  ---------------------------------------


    POTLOK:  cpu time      0.3136: real time      0.3157
    SETDIJ:  cpu time      0.1234: real time      0.1241
     EDDAV:  cpu time      0.3216: real time      0.3247
       DOS:  cpu time      0.0005: real time      0.0005
    CHARGE:  cpu time      0.0631: real time      0.0643
    MIXING:  cpu time      0.0023: real time      0.0023
    --------------------------------------------
      LOOP:  cpu time      0.8246: real time      0.8317

 eigenvalue-minimisations  :   128
 total energy-change (2. order) :-0.3260171E-04  (-0.4170577E-06)
 number of electron       8.0000001 magnetization 
 augmentation part        0.6836989 magnetization 

 Broyden mixing:
  rms(total) = 0.13841E-03    rms(broyden)= 0.13816E-03
  rms(prec ) = 0.25625E-03
  weight for this iteration     100.00

 eigenvalues of (default mixing * dielectric matrix)
  average eigenvalue GAMMA=   1.6791
  2.7730  2.0022  1.6502  0.9213  1.0491

 Free energy of the ion-electron system (eV)
  ---------------------------------------------------
  alpha Z        PSCENC =         0.02803141
  Ewald energy   TEWEN  =       121.58268013
  -Hartree energ DENC   =      -515.31239329
  -exchange      EXHF   =         0.00000000
  -V(xc)+E(xc)   XCENC  =        33.61626288
  PAW double counting   =       561.60680400     -563.35060345
  entropy T*S    EENTRO =        -0.00000000
  eigenvalues    EBANDS =      -109.61437904
  atomic energy  EATOM  =       457.26981990
  Solvation  Ediel_sol  =         0.00000000
  ---------------------------------------------------
  free energy    TOTEN  =       -14.17377746 eV

  energy without entropy =      -14.17377746  energy(sigma->0) =      -14.17377746


--------------------------------------------------------------------------------------------------------




--------------------------------------- Iteration     12(   7)  ---------------------------------------


    POTLOK:  cpu time      0.0629: real time      0.0641
    SETDIJ:  cpu time      0.0901: real time      0.0909
     EDDAV:  cpu time      0.2369: real time      0.2393
       DOS:  cpu time      0.0005: real time      0.0005
    CHARGE:  cpu time      0.0640: real time      0.0652
    MIXING:  cpu time      0.0026: real time      0.0027
    --------------------------------------------
      LOOP:  cpu time      0.4570: real time      0.4626

 eigenvalue-minimisations  :    96
 total energy-change (2. order) :-0.2750962E-04  (-0.2095544E-06)
 number of electron       8.0000001 magnetization 
 augmentation part        0.6836822 magnetization 

 Broyden mixing:
  rms(total) = 0.87962E-04    rms(broyden)= 0.87624E-04
  rms(prec ) = 0.17202E-03
  weight for this iteration     100.00

 eigenvalues of (default mixing * dielectric matrix)
  average eigenvalue GAMMA=   1.8876
  3.5697  2.6213  1.9356  1.2253  0.9868  0.9868

 Free energy of the ion-electron system (eV)
  ---------------------------------------------------
  alpha Z        PSCENC =         0.02803141
  Ewald energy   TEWEN  =       121.58268013
  -Hartree energ DENC   =      -515.31406768
  -exchange      EXHF   =         0.00000000
  -V(xc)+E(xc)   XCENC  =        33.61633257
  PAW double counting   =       561.60747525     -563.35134158
  entropy T*S    EENTRO =        -0.00000000
  eigenvalues    EBANDS =      -109.61273497
  atomic energy  EATOM  =       457.26981990
  Solvation  Ediel_sol  =         0.00000000
  ---------------------------------------------------
  free energy    TOTEN  =       -14.17380497 eV

  energy without entropy =      -14.17380497  energy(sigma->0) =      -14.17380497


--------------------------------------------------------------------------------------------------------




--------------------------------------- Iteration     12(   8)  ---------------------------------------


    POTLOK:  cpu time      0.0650: real time      0.0660
    SETDIJ:  cpu time      0.0899: real time      0.0905
     EDDAV:  cpu time      0.1701: real time      0.1719
       DOS:  cpu time      0.0005: real time      0.0005
    CHARGE:  cpu time      0.0641: real time      0.0653
    MIXING:  cpu time      0.0032: real time      0.0032
    --------------------------------------------
      LOOP:  cpu time      0.3926: real time      0.3974

 eigenvalue-minimisations  :    64
 total energy-change (2. order) :-0.2785165E-04  (-0.3262717E-06)
 number of electron       8.0000001 magnetization 
 augmentation part        0.6836921 magnetization 

 Broyden mixing:
  rms(total) = 0.47954E-04    rms(broyden)= 0.47465E-04
  rms(prec ) = 0.88423E-04
  weight for this iteration     100.00

 eigenvalues of (default mixing * dielectric matrix)
  average eigenvalue GAMMA=   2.0072
  4.5296  2.5457  1.9654  1.9654  0.9911  0.9911  1.0620

 Free energy of the ion-electron system (eV)
  ---------------------------------------------------
  alpha Z        PSCENC =         0.02803141
  Ewald energy   TEWEN  =       121.58268013
  -Hartree energ DENC   =      -515.31300713
  -exchange      EXHF   =         0.00000000
  -V(xc)+E(xc)   XCENC  =        33.61624144
  PAW double counting   =       561.61109277     -563.35493363
  entropy T*S    EENTRO =        -0.00000000
  eigenvalues    EBANDS =      -109.61375771
  atomic energy  EATOM  =       457.26981990
  Solvation  Ediel_sol  =         0.00000000
  ---------------------------------------------------
  free energy    TOTEN  =       -14.17383282 eV

  energy without entropy =      -14.17383282  energy(sigma->0) =      -14.17383282


--------------------------------------------------------------------------------------------------------




--------------------------------------- Iteration     12(   9)  ---------------------------------------


    POTLOK:  cpu time      0.0692: real time      0.0703
    SETDIJ:  cpu time      0.0902: real time      0.0908
     EDDAV:  cpu time      0.3161: real time      0.3196
       DOS:  cpu time      0.0006: real time      0.0006
    CHARGE:  cpu time      0.0633: real time      0.0645
    MIXING:  cpu time      0.0028: real time      0.0028
    --------------------------------------------
      LOOP:  cpu time      0.5422: real time      0.5486

 eigenvalue-minimisations  :   128
 total energy-change (2. order) :-0.1244744E-04  (-0.5807155E-07)
 number of electron       8.0000001 magnetization 
 augmentation part        0.6836917 magnetization 

 Broyden mixing:
  rms(total) = 0.25693E-04    rms(broyden)= 0.24867E-04
  rms(prec ) = 0.50751E-04
  weight for this iteration     100.00

 eigenvalues of (default mixing * dielectric matrix)
  average eigenvalue GAMMA=   2.1678
  5.6457  3.0388  2.4778  1.8103  1.3683  0.9823  0.9823  1.0367

 Free energy of the ion-electron system (eV)
  ---------------------------------------------------
  alpha Z        PSCENC =         0.02803141
  Ewald energy   TEWEN  =       121.58268013
  -Hartree energ DENC   =      -515.31320836
  -exchange      EXHF   =         0.00000000
  -V(xc)+E(xc)   XCENC  =        33.61624364
  PAW double counting   =       561.60902241     -563.35284826
  entropy T*S    EENTRO =        -0.00000000
  eigenvalues    EBANDS =      -109.61358615
  atomic energy  EATOM  =       457.26981990
  Solvation  Ediel_sol  =         0.00000000
  ---------------------------------------------------
  free energy    TOTEN  =       -14.17384527 eV

  energy without entropy =      -14.17384527  energy(sigma->0) =      -14.17384527


--------------------------------------------------------------------------------------------------------




--------------------------------------- Iteration     12(  10)  ---------------------------------------


    POTLOK:  cpu time      0.0648: real time      0.0654
    SETDIJ:  cpu time      0.0904: real time      0.0910
     EDDAV:  cpu time      0.1694: real time      0.1712
       DOS:  cpu time      0.0006: real time      0.0006
    CHARGE:  cpu time      0.0631: real time      0.0643
    MIXING:  cpu time      0.0040: real time      0.0040
    --------------------------------------------
      LOOP:  cpu time      0.3923: real time      0.3965

 eigenvalue-minimisations  :    64
 total energy-change (2. order) :-0.8839535E-05  (-0.4835728E-07)
 number of electron       8.0000001 magnetization 
 augmentation part        0.6836889 magnetization 

 Broyden mixing:
  rms(total) = 0.19848E-04    rms(broyden)= 0.18772E-04
  rms(prec ) = 0.29314E-04
  weight for this iteration     100.00

 eigenvalues of (default mixing * dielectric matrix)
  average eigenvalue GAMMA=   2.3360
  6.9153  3.4353  2.5773  2.0066  2.0066  0.9600  1.0253  1.0253  1.0723

 Free energy of the ion-electron system (eV)
  ---------------------------------------------------
  alpha Z        PSCENC =         0.02803141
  Ewald energy   TEWEN  =       121.58268013
  -Hartree energ DENC   =      -515.31333453
  -exchange      EXHF   =         0.00000000
  -V(xc)+E(xc)   XCENC  =        33.61624696
  PAW double counting   =       561.60941340     -563.35323458
  entropy T*S    EENTRO =        -0.00000000
  eigenvalues    EBANDS =      -109.61347680
  atomic energy  EATOM  =       457.26981990
  Solvation  Ediel_sol  =         0.00000000
  ---------------------------------------------------
  free energy    TOTEN  =       -14.17385411 eV

  energy without entropy =      -14.17385411  energy(sigma->0) =      -14.17385411


--------------------------------------------------------------------------------------------------------




--------------------------------------- Iteration     12(  11)  ---------------------------------------


    POTLOK:  cpu time      0.0638: real time      0.0649
    SETDIJ:  cpu time      0.0905: real time      0.0912
     EDDAV:  cpu time      0.2376: real time      0.2401
       DOS:  cpu time      0.0007: real time      0.0007
    CHARGE:  cpu time      0.0643: real time      0.0654
    MIXING:  cpu time      0.0025: real time      0.0025
    --------------------------------------------
      LOOP:  cpu time      0.4594: real time      0.4649

 eigenvalue-minimisations  :    96
 total energy-change (2. order) :-0.4116618E-05  (-0.9130666E-08)
 number of electron       8.0000001 magnetization 
 augmentation part        0.6836915 magnetization 

 Broyden mixing:
  rms(total) = 0.99560E-05    rms(broyden)= 0.75983E-05
  rms(prec ) = 0.13329E-04
  weight for this iteration     100.00
  WARNING: grid for Broyden might be to small

 eigenvalues of (default mixing * dielectric matrix)
  average eigenvalue GAMMA=   2.3754
  7.5568  3.8693  2.7682  2.3084  1.8399  1.3898  0.9306  1.0145  1.0145  1.0623

 Free energy of the ion-electron system (eV)
  ---------------------------------------------------
  alpha Z        PSCENC =         0.02803141
  Ewald energy   TEWEN  =       121.58268013
  -Hartree energ DENC   =      -515.31288384
  -exchange      EXHF   =         0.00000000
  -V(xc)+E(xc)   XCENC  =        33.61622179
  PAW double counting   =       561.60871265     -563.35253881
  entropy T*S    EENTRO =        -0.00000000
  eigenvalues    EBANDS =      -109.61390145
  atomic energy  EATOM  =       457.26981990
  Solvation  Ediel_sol  =         0.00000000
  ---------------------------------------------------
  free energy    TOTEN  =       -14.17385822 eV

  energy without entropy =      -14.17385822  energy(sigma->0) =      -14.17385822


--------------------------------------------------------------------------------------------------------




--------------------------------------- Iteration     12(  12)  ---------------------------------------


    POTLOK:  cpu time      0.0674: real time      0.0681
    SETDIJ:  cpu time      0.0902: real time      0.0908
     EDDAV:  cpu time      0.3146: real time      0.3178
       DOS:  cpu time      0.0005: real time      0.0010
    CHARGE:  cpu time      0.0633: real time      0.0640
    MIXING:  cpu time      0.0026: real time      0.0027
    --------------------------------------------
      LOOP:  cpu time      0.5387: real time      0.5443

 eigenvalue-minimisations  :   128
 total energy-change (2. order) :-0.1513480E-05  (-0.1731275E-08)
 number of electron       8.0000001 magnetization 
 augmentation part        0.6836907 magnetization 

 Broyden mixing:
  rms(total) = 0.83680E-05    rms(broyden)= 0.53637E-05
  rms(prec ) = 0.82710E-05
  weight for this iteration     100.00
  WARNING: grid for Broyden might be to small

 eigenvalues of (default mixing * dielectric matrix)
  average eigenvalue GAMMA=   2.5165
  8.2890  4.6956  2.9766  2.5996  2.0925  1.9413  1.0398  1.0398  1.0866  0.9554
  0.9656

 Free energy of the ion-electron system (eV)
  ---------------------------------------------------
  alpha Z        PSCENC =         0.02803141
  Ewald energy   TEWEN  =       121.58268013
  -Hartree energ DENC   =      -515.31294125
  -exchange      EXHF   =         0.00000000
  -V(xc)+E(xc)   XCENC  =        33.61622487
  PAW double counting   =       561.60906828     -563.35289933
  entropy T*S    EENTRO =        -0.00000000
  eigenvalues    EBANDS =      -109.61384375
  atomic energy  EATOM  =       457.26981990
  Solvation  Ediel_sol  =         0.00000000
  ---------------------------------------------------
  free energy    TOTEN  =       -14.17385974 eV

  energy without entropy =      -14.17385974  energy(sigma->0) =      -14.17385974


--------------------------------------------------------------------------------------------------------




--------------------------------------- Iteration     12(  13)  ---------------------------------------


    POTLOK:  cpu time      0.0657: real time      0.0663
    SETDIJ:  cpu time      0.0922: real time      0.0928
     EDDAV:  cpu time      0.3167: real time      0.3201
       DOS:  cpu time      0.0006: real time      0.0006
    CHARGE:  cpu time      0.0631: real time      0.0642
    MIXING:  cpu time      0.0039: real time      0.0039
    --------------------------------------------
      LOOP:  cpu time      0.5422: real time      0.5479

 eigenvalue-minimisations  :   128
 total energy-change (2. order) :-0.9839484E-06  (-0.1149665E-08)
 number of electron       8.0000001 magnetization 
 augmentation part        0.6836907 magnetization 

 Broyden mixing:
  rms(total) = 0.67827E-05    rms(broyden)= 0.21834E-05
  rms(prec ) = 0.37723E-05
  weight for this iteration     100.00
  WARNING: grid for Broyden might be to small

 eigenvalues of (default mixing * dielectric matrix)
  average eigenvalue GAMMA=   2.5376
  8.6637  5.0194  3.2114  2.4286  2.4286  1.9066  1.7070  0.9414  1.0321  1.0321
  1.0695  1.0112

 Free energy of the ion-electron system (eV)
  ---------------------------------------------------
  alpha Z        PSCENC =         0.02803141
  Ewald energy   TEWEN  =       121.58268013
  -Hartree energ DENC   =      -515.31293186
  -exchange      EXHF   =         0.00000000
  -V(xc)+E(xc)   XCENC  =        33.61622415
  PAW double counting   =       561.60940552     -563.35323389
  entropy T*S    EENTRO =        -0.00000000
  eigenvalues    EBANDS =      -109.61385608
  atomic energy  EATOM  =       457.26981990
  Solvation  Ediel_sol  =         0.00000000
  ---------------------------------------------------
  free energy    TOTEN  =       -14.17386072 eV

  energy without entropy =      -14.17386072  energy(sigma->0) =      -14.17386072


--------------------------------------------------------------------------------------------------------




--------------------------------------- Iteration     12(  14)  ---------------------------------------


    POTLOK:  cpu time      0.0659: real time      0.0665
    SETDIJ:  cpu time      0.0900: real time      0.0907
     EDDAV:  cpu time      0.3149: real time      0.3180
       DOS:  cpu time      0.0004: real time      0.0009
    CHARGE:  cpu time      0.0647: real time      0.0659
    MIXING:  cpu time      0.0049: real time      0.0049
    --------------------------------------------
      LOOP:  cpu time      0.5409: real time      0.5469

 eigenvalue-minimisations  :   128
 total energy-change (2. order) :-0.4234034E-06  (-0.2195382E-09)
 number of electron       8.0000001 magnetization 
 augmentation part        0.6836907 magnetization 

 Broyden mixing:
  rms(total) = 0.65230E-05    rms(broyden)= 0.11471E-05
  rms(prec ) = 0.19153E-05
  weight for this iteration     100.00
  WARNING: grid for Broyden might be to small

 eigenvalues of (default mixing * dielectric matrix)
  average eigenvalue GAMMA=   2.6165
  9.1242  5.7368  3.7543  2.8291  2.4568  1.9592  1.9592  1.1054  1.1054  0.9330
  1.0057  1.0057  1.0394

 Free energy of the ion-electron system (eV)
  ---------------------------------------------------
  alpha Z        PSCENC =         0.02803141
  Ewald energy   TEWEN  =       121.58268013
  -Hartree energ DENC   =      -515.31295382
  -exchange      EXHF   =         0.00000000
  -V(xc)+E(xc)   XCENC  =        33.61622490
  PAW double counting   =       561.60921132     -563.35303839
  entropy T*S    EENTRO =        -0.00000000
  eigenvalues    EBANDS =      -109.61383659
  atomic energy  EATOM  =       457.26981990
  Solvation  Ediel_sol  =         0.00000000
  ---------------------------------------------------
  free energy    TOTEN  =       -14.17386115 eV

  energy without entropy =      -14.17386115  energy(sigma->0) =      -14.17386115


--------------------------------------------------------------------------------------------------------




--------------------------------------- Iteration     12(  15)  ---------------------------------------


    POTLOK:  cpu time      0.0657: real time      0.0662
    SETDIJ:  cpu time      0.0897: real time      0.0904
     EDDAV:  cpu time      0.3148: real time      0.3181
       DOS:  cpu time      0.0007: real time      0.0007
    CHARGE:  cpu time      0.0629: real time      0.0641
    MIXING:  cpu time      0.0034: real time      0.0034
    --------------------------------------------
      LOOP:  cpu time      0.5373: real time      0.5430

 eigenvalue-minimisations  :   128
 total energy-change (2. order) :-0.1857890E-06  (-0.6245671E-10)
 number of electron       8.0000001 magnetization 
 augmentation part        0.6836906 magnetization 

 Broyden mixing:
  rms(total) = 0.64719E-05    rms(broyden)= 0.80782E-06
  rms(prec ) = 0.11450E-05
  weight for this iteration     100.00
  WARNING: grid for Broyden might be to small

 eigenvalues of (default mixing * dielectric matrix)
  average eigenvalue GAMMA=   2.7427
  9.4846  6.4536  4.3159  3.1127  2.6656  2.4108  1.9034  1.9034  0.9381  1.0808
  1.0808  1.0256  1.0256  0.9970

 Free energy of the ion-electron system (eV)
  ---------------------------------------------------
  alpha Z        PSCENC =         0.02803141
  Ewald energy   TEWEN  =       121.58268013
  -Hartree energ DENC   =      -515.31296257
  -exchange      EXHF   =         0.00000000
  -V(xc)+E(xc)   XCENC  =        33.61622518
  PAW double counting   =       561.60925237     -563.35307964
  entropy T*S    EENTRO =        -0.00000000
  eigenvalues    EBANDS =      -109.61382811
  atomic energy  EATOM  =       457.26981990
  Solvation  Ediel_sol  =         0.00000000
  ---------------------------------------------------
  free energy    TOTEN  =       -14.17386133 eV

  energy without entropy =      -14.17386133  energy(sigma->0) =      -14.17386133


--------------------------------------------------------------------------------------------------------




--------------------------------------- Iteration     12(  16)  ---------------------------------------


    POTLOK:  cpu time      0.0656: real time      0.0670
    SETDIJ:  cpu time      0.0897: real time      0.0904
     EDDAV:  cpu time      0.1681: real time      0.1698
       DOS:  cpu time      0.0004: real time      0.0004
    CHARGE:  cpu time      0.0642: real time      0.0654
    MIXING:  cpu time      0.0032: real time      0.0033
    --------------------------------------------
      LOOP:  cpu time      0.3913: real time      0.3963

 eigenvalue-minimisations  :    64
 total energy-change (2. order) :-0.1336496E-06  (-0.3209166E-10)
 number of electron       8.0000001 magnetization 
 augmentation part        0.6836907 magnetization 

 Broyden mixing:
  rms(total) = 0.64352E-05    rms(broyden)= 0.42400E-06
  rms(prec ) = 0.52162E-06
  weight for this iteration     100.00
  WARNING: grid for Broyden might be to small

 eigenvalues of (default mixing * dielectric matrix)
  average eigenvalue GAMMA=   2.7061
  9.5987  6.7290  4.5030  3.1506  2.6729  2.3234  1.9849  1.9849  1.5156  1.1049
  1.0339  1.0339  0.9390  0.9850  1.0319

 Free energy of the ion-electron system (eV)
  ---------------------------------------------------
  alpha Z        PSCENC =         0.02803141
  Ewald energy   TEWEN  =       121.58268013
  -Hartree energ DENC   =      -515.31294785
  -exchange      EXHF   =         0.00000000
  -V(xc)+E(xc)   XCENC  =        33.61622437
  PAW double counting   =       561.60923622     -563.35306444
  entropy T*S    EENTRO =        -0.00000000
  eigenvalues    EBANDS =      -109.61384121
  atomic energy  EATOM  =       457.26981990
  Solvation  Ediel_sol  =         0.00000000
  ---------------------------------------------------
  free energy    TOTEN  =       -14.17386147 eV

  energy without entropy =      -14.17386147  energy(sigma->0) =      -14.17386147


--------------------------------------------------------------------------------------------------------




--------------------------------------- Iteration     12(  17)  ---------------------------------------


    POTLOK:  cpu time      0.0705: real time      0.0711
    SETDIJ:  cpu time      0.0905: real time      0.0911
     EDDAV:  cpu time      0.3119: real time      0.3154
       DOS:  cpu time      0.0009: real time      0.0009
    CHARGE:  cpu time      0.0639: real time      0.0651
    MIXING:  cpu time      0.0033: real time      0.0033
    --------------------------------------------
      LOOP:  cpu time      0.5410: real time      0.5469

 eigenvalue-minimisations  :   128
 total energy-change (2. order) :-0.2238335E-07  (-0.1153033E-10)
 number of electron       8.0000001 magnetization 
 augmentation part        0.6836907 magnetization 

 Broyden mixing:
  rms(total) = 0.64228E-05    rms(broyden)= 0.14358E-06
  rms(prec ) = 0.22926E-06
  weight for this iteration     100.00
  WARNING: grid for Broyden might be to small

 eigenvalues of (default mixing * dielectric matrix)
  average eigenvalue GAMMA=   2.7588
  9.8156  7.1018  4.9368  3.6146  2.8511  2.4549  2.3519  1.9387  1.8638  1.1301
  1.1301  1.0298  1.0298  0.9345  0.9791  0.9791

 Free energy of the ion-electron system (eV)
  ---------------------------------------------------
  alpha Z        PSCENC =         0.02803141
  Ewald energy   TEWEN  =       121.58268013
  -Hartree energ DENC   =      -515.31295455
  -exchange      EXHF   =         0.00000000
  -V(xc)+E(xc)   XCENC  =        33.61622476
  PAW double counting   =       561.60923664     -563.35306464
  entropy T*S    EENTRO =        -0.00000000
  eigenvalues    EBANDS =      -109.61383513
  atomic energy  EATOM  =       457.26981990
  Solvation  Ediel_sol  =         0.00000000
  ---------------------------------------------------
  free energy    TOTEN  =       -14.17386149 eV

  energy without entropy =      -14.17386149  energy(sigma->0) =      -14.17386149


--------------------------------------------------------------------------------------------------------




--------------------------------------- Iteration     12(  18)  ---------------------------------------


    POTLOK:  cpu time      0.0676: real time      0.0681
    SETDIJ:  cpu time      0.0900: real time      0.0906
     EDDAV:  cpu time      0.1691: real time      0.1708
       DOS:  cpu time      0.0005: real time      0.0005
    CHARGE:  cpu time      0.0644: real time      0.0656
    MIXING:  cpu time      0.0043: real time      0.0043
    --------------------------------------------
      LOOP:  cpu time      0.3959: real time      0.4001

 eigenvalue-minimisations  :    64
 total energy-change (2. order) :-0.1120816E-07  (-0.1340794E-10)
 number of electron       8.0000001 magnetization 
 augmentation part        0.6836907 magnetization 

 Broyden mixing:
  rms(total) = 0.64217E-05    rms(broyden)= 0.74003E-07
  rms(prec ) = 0.11455E-06
  weight for this iteration     100.00
  WARNING: grid for Broyden might be to small

 eigenvalues of (default mixing * dielectric matrix)
  average eigenvalue GAMMA=   2.7712
  9.8584  7.2961  5.2135  3.9080  3.0720  2.6600  2.2446  1.9727  1.9727  1.7618
  1.1095  1.0887  1.0285  1.0285  0.9360  0.9801  0.9801

 Free energy of the ion-electron system (eV)
  ---------------------------------------------------
  alpha Z        PSCENC =         0.02803141
  Ewald energy   TEWEN  =       121.58268013
  -Hartree energ DENC   =      -515.31295244
  -exchange      EXHF   =         0.00000000
  -V(xc)+E(xc)   XCENC  =        33.61622466
  PAW double counting   =       561.60923227     -563.35306013
  entropy T*S    EENTRO =        -0.00000000
  eigenvalues    EBANDS =      -109.61383730
  atomic energy  EATOM  =       457.26981990
  Solvation  Ediel_sol  =         0.00000000
  ---------------------------------------------------
  free energy    TOTEN  =       -14.17386150 eV

  energy without entropy =      -14.17386150  energy(sigma->0) =      -14.17386150


--------------------------------------------------------------------------------------------------------




--------------------------------------- Iteration     12(  19)  ---------------------------------------


    POTLOK:  cpu time      0.0664: real time      0.0673
    SETDIJ:  cpu time      0.0901: real time      0.0907
     EDDAV:  cpu time      0.2356: real time      0.2382
       DOS:  cpu time      0.0006: real time      0.0006
    --------------------------------------------
      LOOP:  cpu time      0.3927: real time      0.3968

 eigenvalue-minimisations  :    96
 total energy-change (2. order) :-0.2478828E-08  (-0.1281464E-10)
 number of electron       8.0000001 magnetization 
 augmentation part        0.6836907 magnetization 

 Free energy of the ion-electron system (eV)
  ---------------------------------------------------
  alpha Z        PSCENC =         0.02803141
  Ewald energy   TEWEN  =       121.58268013
  -Hartree energ DENC   =      -515.31295207
  -exchange      EXHF   =         0.00000000
  -V(xc)+E(xc)   XCENC  =        33.61622464
  PAW double counting   =       561.60923833     -563.35306623
  entropy T*S    EENTRO =        -0.00000000
  eigenvalues    EBANDS =      -109.61383761
  atomic energy  EATOM  =       457.26981990
  Solvation  Ediel_sol  =         0.00000000
  ---------------------------------------------------
  free energy    TOTEN  =       -14.17386150 eV

  energy without entropy =      -14.17386150  energy(sigma->0) =      -14.17386150


--------------------------------------------------------------------------------------------------------




 average (electrostatic) potential at core
  the test charge radii are     0.5201  0.7215
  (the norm of the test charge is              1.0000)
       1 -44.8387       2 -44.8346       3 -80.7501



 E-fermi :  -7.1170     XC(G=0):  -0.1048     alpha+bet : -0.0163

 val. band max:       -7.1708408588   @ k =   0.0000   0.0000   0.0000
 cond. band min:      -1.0690500486   @ k =   0.0000   0.0000   0.0000
 fundamental gap:      6.1017908102
 Fermi energy:        -7.1169910849

 k-point     1 :       0.0000    0.0000    0.0000
  band No.  band energies     occupation 
      1     -25.3323      2.00000
      2     -13.0415      2.00000
      3      -9.2623      2.00000
      4      -7.1708      2.00000
      5      -1.0691      0.00000
      6       0.0114      0.00000
      7       0.1968      0.00000
      8       0.2970      0.00000
      9       0.3120      0.00000
     10       0.3410      0.00000
     11       0.3480      0.00000
     12       0.4622      0.00000
     13       0.4972      0.00000
     14       0.6014      0.00000
     15       0.6225      0.00000
     16       0.7077      0.00000
     17       0.7080      0.00000
     18       0.7133      0.00000
     19       0.7173      0.00000
     20       0.7215      0.00000
     21       0.7295      0.00000
     22       0.7311      0.00000
     23       0.7369      0.00000
     24       0.9375      0.00000
     25       0.9375      0.00000
     26       1.0200      0.00000
     27       1.0343      0.00000
     28       1.0812      0.00000
     29       1.0852      0.00000
     30       1.0878      0.00000
     31       1.1045      0.00000
     32       1.2529      0.00000


--------------------------------------------------------------------------------------------------------


 soft charge-density along one line, spin component           1
         0         1         2         3         4         5         6         7         8         9
 total charge-density along one line

 pseudopotential strength for first ion, spin component:           1
 -2.379  -4.110  -0.023  -0.000   0.002
 -4.110  -7.012  -0.042  -0.000   0.005
 -0.023  -0.042  -0.283   0.000  -0.005
 -0.000  -0.000   0.000  -0.327   0.000
  0.002   0.005  -0.005   0.000  -0.325
 total augmentation occupancy for first ion, spin component:           1
  3.966  -0.866   0.708   0.000  -0.104
 -0.866   0.236  -0.151   0.000   0.027
  0.708  -0.151   0.127  -0.000  -0.017
  0.000   0.000  -0.000   0.038  -0.000
 -0.104   0.027  -0.017  -0.000   0.027


------------------------ aborting loop because EDIFF is reached ----------------------------------------


    CHARGE:  cpu time      0.0646: real time      0.0653
    FORLOC:  cpu time      0.0021: real time      0.0021
    FORNL :  cpu time      0.2447: real time      0.2475
    STRESS:  cpu time      0.9315: real time      0.9419
    FORCOR:  cpu time      0.0558: real time      0.0562
    FORHAR:  cpu time      0.0145: real time      0.0146
    MIXING:  cpu time      0.0027: real time      0.0028
    OFIELD:  cpu time      0.0000: real time      0.0000

 ---------------------------------------------------------------------------------------------

         DFTD3 V3.0 Rev 1        
 Edisp (eV)   -0.00134

 E6    (eV) :    -0.0013
 E8    (eV) :    -0.0001
 % E8        :  5.25
    FORVDW:  cpu time      0.0079: real time      0.0080

  FORCE on cell =-STRESS in cart. coord.  units (eV):
  Direction    XX          YY          ZZ          XY          YZ          ZX
  --------------------------------------------------------------------------------------
  Alpha Z     0.02803     0.02803     0.02803
  Ewald      57.26720    86.09297   -21.77745    22.22600     0.83442     1.72857
  Hartree   174.87133   179.83836   160.60327     3.82666     0.14579     0.31067
  E(xc)     -36.31349   -36.17114   -36.76832     0.11022     0.00436     0.00995
  Local    -317.83066  -343.50416  -248.67581   -19.78711    -0.73837    -1.51172
  n-local   -30.67806   -30.20948   -30.81191     0.36453     0.00972     0.00423
  augment     6.44719     5.93525     8.08392    -0.39620    -0.01566    -0.03558
  Kinetic   145.45091   137.27870   168.48857    -6.32171    -0.23929    -0.50377
  Fock        0.00000     0.00000     0.00000     0.00000     0.00000     0.00000
  vdW         0.00263     0.00800    -0.00000     0.00416     0.00011     0.00007
  -------------------------------------------------------------------------------------
  Total      -0.75491    -0.70345    -0.82970     0.02656     0.00109     0.00240
  in kB      -0.15119    -0.14088    -0.16617     0.00532     0.00022     0.00048
  external pressure =       -0.15 kB  Pullay stress =        0.00 kB


 VOLUME and BASIS-vectors are now :
 -----------------------------------------------------------------------------
  energy-cutoff  :      400.00
  volume of cell :     8000.00
      direct lattice vectors                 reciprocal lattice vectors
    20.000000000  0.000000000  0.000000000     0.050000000  0.000000000  0.000000000
     0.000000000 20.000000000  0.000000000     0.000000000  0.050000000  0.000000000
     0.000000000  0.000000000 20.000000000     0.000000000  0.000000000  0.050000000

  length of vectors
    20.000000000 20.000000000 20.000000000     0.050000000  0.050000000  0.050000000


 FORCES acting on ions
    electron-ion (+dipol)            ewald-force                    non-local-force                 convergence-correction
 -----------------------------------------------------------------------------------------------
   -.108E+02 0.871E+02 0.731E-01   0.118E+02 -.953E+02 -.791E-01   -.105E+01 0.819E+01 0.603E-02   0.691E-08 0.149E-08 -.134E-07
   -.790E+02 -.382E+02 -.178E+01   0.864E+02 0.417E+02 0.195E+01   -.744E+01 -.355E+01 -.168E+00   0.531E-07 -.582E-07 -.397E-07
   0.551E+02 -.301E+02 0.105E+01   -.983E+02 0.536E+02 -.187E+01   0.432E+02 -.235E+02 0.822E+00   0.122E-06 -.892E-06 -.495E-06
 -----------------------------------------------------------------------------------------------
   -.347E+02 0.189E+02 -.661E+00   0.142E-13 -.711E-14 0.000E+00   0.347E+02 -.189E+02 0.660E+00   0.182E-06 -.948E-06 -.548E-06


 POSITION                                       TOTAL-FORCE (eV/Angst)
 -----------------------------------------------------------------------------------
      9.80755      9.62347     10.00000        -0.000156      0.000667      0.000022
     10.54234     10.97263     10.02000        -0.008759     -0.004519     -0.000369
      9.65011     10.58390     10.00000         0.008915      0.003852      0.000347
 -----------------------------------------------------------------------------------
    total drift:                               -0.008808      0.004995     -0.000229


--------------------------------------------------------------------------------------------------------



  FREE ENERGIE OF THE ION-ELECTRON SYSTEM (eV)
  ---------------------------------------------------
  free  energy   TOTEN  =       -14.17520634 eV

  energy  without entropy=      -14.17520634  energy(sigma->0) =      -14.17520634

 d Force = 0.2468474E-02[-0.978E-04, 0.503E-02]  d Energy = 0.2553258E-02-0.848E-04
 d Force = 0.8453334E+00[ 0.874E+00, 0.817E+00]  d Ewald  = 0.8457507E+00-0.417E-03


--------------------------------------------------------------------------------------------------------


    POTLOK:  cpu time      0.1562: real time      0.1573


--------------------------------------------------------------------------------------------------------


 Finite differences progress:
  Degree of freedom:   6/  9
  Displacement:        1/  2
  Total:              11/ 18
    WAVPRE:  cpu time      0.0098: real time      0.0106
    FEWALD:  cpu time      0.0003: real time      0.0007
    ORTHCH:  cpu time      0.0146: real time      0.0148
     LOOP+:  cpu time     11.5828: real time     11.7068


--------------------------------------- Ionic step       13  -------------------------------------------




--------------------------------------- Iteration     13(   1)  ---------------------------------------


    POTLOK:  cpu time      0.0635: real time      0.0641
    SETDIJ:  cpu time      0.0899: real time      0.0905
     EDDAV:  cpu time      0.1686: real time      0.1708
       DOS:  cpu time      0.0005: real time      0.0005
    CHARGE:  cpu time      0.0622: real time      0.0634
    MIXING:  cpu time      0.0043: real time      0.0044
    --------------------------------------------
      LOOP:  cpu time      0.3892: real time      0.3937

 eigenvalue-minimisations  :    64
 total energy-change (2. order) : 0.7766701E-03  (-0.4978727E-01)
 number of electron       8.0000001 magnetization 
 augmentation part        0.6835796 magnetization 

 Broyden mixing:
  rms(total) = 0.21992E-01    rms(broyden)= 0.21847E-01
  rms(prec ) = 0.22474E-01
  weight for this iteration     100.00

 Free energy of the ion-electron system (eV)
  ---------------------------------------------------
  alpha Z        PSCENC =         0.02803141
  Ewald energy   TEWEN  =       121.58268733
  -Hartree energ DENC   =      -515.31335566
  -exchange      EXHF   =         0.00000000
  -V(xc)+E(xc)   XCENC  =        33.61688621
  PAW double counting   =       561.60923693     -563.35306487
  entropy T*S    EENTRO =        -0.00000000
  eigenvalues    EBANDS =      -109.61332607
  atomic energy  EATOM  =       457.26981990
  Solvation  Ediel_sol  =         0.00000000
  ---------------------------------------------------
  free energy    TOTEN  =       -14.17308483 eV

  energy without entropy =      -14.17308483  energy(sigma->0) =      -14.17308483


--------------------------------------------------------------------------------------------------------




--------------------------------------- Iteration     13(   2)  ---------------------------------------


    POTLOK:  cpu time      0.0638: real time      0.0649
    SETDIJ:  cpu time      0.0904: real time      0.0911
     EDDAV:  cpu time      0.2370: real time      0.2395
       DOS:  cpu time      0.0007: real time      0.0007
    CHARGE:  cpu time      0.0651: real time      0.0664
    MIXING:  cpu time      0.0025: real time      0.0025
    --------------------------------------------
      LOOP:  cpu time      0.4595: real time      0.4650

 eigenvalue-minimisations  :    96
 total energy-change (2. order) :-0.2698042E-03  (-0.3659212E-03)
 number of electron       8.0000001 magnetization 
 augmentation part        0.6837532 magnetization 

 Broyden mixing:
  rms(total) = 0.12968E-01    rms(broyden)= 0.12959E-01
  rms(prec ) = 0.13401E-01
  weight for this iteration     100.00

 eigenvalues of (default mixing * dielectric matrix)
  average eigenvalue GAMMA=   2.1518
  2.1518

 Free energy of the ion-electron system (eV)
  ---------------------------------------------------
  alpha Z        PSCENC =         0.02803141
  Ewald energy   TEWEN  =       121.58268733
  -Hartree energ DENC   =      -515.30330139
  -exchange      EXHF   =         0.00000000
  -V(xc)+E(xc)   XCENC  =        33.61603615
  PAW double counting   =       561.60467558     -563.34832886
  entropy T*S    EENTRO =        -0.00000000
  eigenvalues    EBANDS =      -109.62297476
  atomic energy  EATOM  =       457.26981990
  Solvation  Ediel_sol  =         0.00000000
  ---------------------------------------------------
  free energy    TOTEN  =       -14.17335463 eV

  energy without entropy =      -14.17335463  energy(sigma->0) =      -14.17335463


--------------------------------------------------------------------------------------------------------




--------------------------------------- Iteration     13(   3)  ---------------------------------------


    POTLOK:  cpu time      0.0626: real time      0.0638
    SETDIJ:  cpu time      0.0909: real time      0.0916
     EDDAV:  cpu time      0.2363: real time      0.2386
       DOS:  cpu time      0.0006: real time      0.0006
    CHARGE:  cpu time      0.0645: real time      0.0657
    MIXING:  cpu time      0.0027: real time      0.0033
    --------------------------------------------
      LOOP:  cpu time      0.4576: real time      0.4636

 eigenvalue-minimisations  :    96
 total energy-change (2. order) :-0.2363698E-03  (-0.1687220E-04)
 number of electron       8.0000001 magnetization 
 augmentation part        0.6836167 magnetization 

 Broyden mixing:
  rms(total) = 0.22945E-02    rms(broyden)= 0.22923E-02
  rms(prec ) = 0.25412E-02
  weight for this iteration     100.00

 eigenvalues of (default mixing * dielectric matrix)
  average eigenvalue GAMMA=   1.7940
  1.0329  2.5552

 Free energy of the ion-electron system (eV)
  ---------------------------------------------------
  alpha Z        PSCENC =         0.02803141
  Ewald energy   TEWEN  =       121.58268733
  -Hartree energ DENC   =      -515.32702864
  -exchange      EXHF   =         0.00000000
  -V(xc)+E(xc)   XCENC  =        33.61712942
  PAW double counting   =       561.63972378     -563.38369551
  entropy T*S    EENTRO =        -0.00000000
  eigenvalues    EBANDS =      -109.60025869
  atomic energy  EATOM  =       457.26981990
  Solvation  Ediel_sol  =         0.00000000
  ---------------------------------------------------
  free energy    TOTEN  =       -14.17359100 eV

  energy without entropy =      -14.17359100  energy(sigma->0) =      -14.17359100


--------------------------------------------------------------------------------------------------------




--------------------------------------- Iteration     13(   4)  ---------------------------------------


    POTLOK:  cpu time      0.0633: real time      0.0639
    SETDIJ:  cpu time      0.0900: real time      0.0907
     EDDAV:  cpu time      0.3141: real time      0.3174
       DOS:  cpu time      0.0005: real time      0.0005
    CHARGE:  cpu time      0.0642: real time      0.0654
    MIXING:  cpu time      0.0030: real time      0.0030
    --------------------------------------------
      LOOP:  cpu time      0.5351: real time      0.5409

 eigenvalue-minimisations  :   128
 total energy-change (2. order) :-0.2463994E-04  (-0.1412684E-05)
 number of electron       8.0000001 magnetization 
 augmentation part        0.6837011 magnetization 

 Broyden mixing:
  rms(total) = 0.68171E-03    rms(broyden)= 0.68103E-03
  rms(prec ) = 0.94736E-03
  weight for this iteration     100.00

 eigenvalues of (default mixing * dielectric matrix)
  average eigenvalue GAMMA=   1.6787
  2.5720  0.9145  1.5495

 Free energy of the ion-electron system (eV)
  ---------------------------------------------------
  alpha Z        PSCENC =         0.02803141
  Ewald energy   TEWEN  =       121.58268733
  -Hartree energ DENC   =      -515.31538046
  -exchange      EXHF   =         0.00000000
  -V(xc)+E(xc)   XCENC  =        33.61648367
  PAW double counting   =       561.61358827     -563.35738076
  entropy T*S    EENTRO =        -0.00000000
  eigenvalues    EBANDS =      -109.61146500
  atomic energy  EATOM  =       457.26981990
  Solvation  Ediel_sol  =         0.00000000
  ---------------------------------------------------
  free energy    TOTEN  =       -14.17361564 eV

  energy without entropy =      -14.17361564  energy(sigma->0) =      -14.17361564


--------------------------------------------------------------------------------------------------------




--------------------------------------- Iteration     13(   5)  ---------------------------------------


    POTLOK:  cpu time      0.0644: real time      0.0649
    SETDIJ:  cpu time      0.0901: real time      0.0907
     EDDAV:  cpu time      0.3814: real time      0.3852
       DOS:  cpu time      0.0006: real time      0.0006
    CHARGE:  cpu time      0.0637: real time      0.0648
    MIXING:  cpu time      0.0119: real time      0.0120
    --------------------------------------------
      LOOP:  cpu time      0.6120: real time      0.6183

 eigenvalue-minimisations  :   128
 total energy-change (2. order) :-0.5570363E-04  (-0.5530639E-06)
 number of electron       8.0000001 magnetization 
 augmentation part        0.6836957 magnetization 

 Broyden mixing:
  rms(total) = 0.34360E-03    rms(broyden)= 0.34350E-03
  rms(prec ) = 0.58029E-03
  weight for this iteration     100.00

 eigenvalues of (default mixing * dielectric matrix)
  average eigenvalue GAMMA=   1.8729
  3.0094  2.4660  0.9237  1.0926

 Free energy of the ion-electron system (eV)
  ---------------------------------------------------
  alpha Z        PSCENC =         0.02803141
  Ewald energy   TEWEN  =       121.58268733
  -Hartree energ DENC   =      -515.31520464
  -exchange      EXHF   =         0.00000000
  -V(xc)+E(xc)   XCENC  =        33.61645253
  PAW double counting   =       561.61316297     -563.35698548
  entropy T*S    EENTRO =        -0.00000000
  eigenvalues    EBANDS =      -109.61163535
  atomic energy  EATOM  =       457.26981990
  Solvation  Ediel_sol  =         0.00000000
  ---------------------------------------------------
  free energy    TOTEN  =       -14.17367135 eV

  energy without entropy =      -14.17367135  energy(sigma->0) =      -14.17367135


--------------------------------------------------------------------------------------------------------




--------------------------------------- Iteration     13(   6)  ---------------------------------------


    POTLOK:  cpu time      0.0641: real time      0.0652
    SETDIJ:  cpu time      0.0902: real time      0.0908
     EDDAV:  cpu time      0.2398: real time      0.2424
       DOS:  cpu time      0.0006: real time      0.0006
    CHARGE:  cpu time      0.0634: real time      0.0646
    MIXING:  cpu time      0.0024: real time      0.0024
    --------------------------------------------
      LOOP:  cpu time      0.4604: real time      0.4660

 eigenvalue-minimisations  :    96
 total energy-change (2. order) :-0.7079793E-04  (-0.1212015E-05)
 number of electron       8.0000001 magnetization 
 augmentation part        0.6836890 magnetization 

 Broyden mixing:
  rms(total) = 0.17699E-03    rms(broyden)= 0.17678E-03
  rms(prec ) = 0.30802E-03
  weight for this iteration     100.00

 eigenvalues of (default mixing * dielectric matrix)
  average eigenvalue GAMMA=   2.1128
  3.8267  2.5820  2.1852  0.9850  0.9850

 Free energy of the ion-electron system (eV)
  ---------------------------------------------------
  alpha Z        PSCENC =         0.02803141
  Ewald energy   TEWEN  =       121.58268733
  -Hartree energ DENC   =      -515.31503433
  -exchange      EXHF   =         0.00000000
  -V(xc)+E(xc)   XCENC  =        33.61640548
  PAW double counting   =       561.61136037     -563.35520682
  entropy T*S    EENTRO =        -0.00000000
  eigenvalues    EBANDS =      -109.61180548
  atomic energy  EATOM  =       457.26981990
  Solvation  Ediel_sol  =         0.00000000
  ---------------------------------------------------
  free energy    TOTEN  =       -14.17374214 eV

  energy without entropy =      -14.17374214  energy(sigma->0) =      -14.17374214


--------------------------------------------------------------------------------------------------------




--------------------------------------- Iteration     13(   7)  ---------------------------------------


    POTLOK:  cpu time      0.0650: real time      0.0660
    SETDIJ:  cpu time      0.0903: real time      0.0909
     EDDAV:  cpu time      0.1694: real time      0.1712
       DOS:  cpu time      0.0005: real time      0.0005
    CHARGE:  cpu time      0.0633: real time      0.0647
    MIXING:  cpu time      0.0034: real time      0.0035
    --------------------------------------------
      LOOP:  cpu time      0.3919: real time      0.3969

 eigenvalue-minimisations  :    64
 total energy-change (2. order) :-0.6473235E-04  (-0.1105610E-05)
 number of electron       8.0000001 magnetization 
 augmentation part        0.6836900 magnetization 

 Broyden mixing:
  rms(total) = 0.74746E-04    rms(broyden)= 0.74343E-04
  rms(prec ) = 0.14463E-03
  weight for this iteration     100.00

 eigenvalues of (default mixing * dielectric matrix)
  average eigenvalue GAMMA=   2.1981
  4.4535  2.7516  2.3739  0.9799  0.9799  1.6500

 Free energy of the ion-electron system (eV)
  ---------------------------------------------------
  alpha Z        PSCENC =         0.02803141
  Ewald energy   TEWEN  =       121.58268733
  -Hartree energ DENC   =      -515.31379969
  -exchange      EXHF   =         0.00000000
  -V(xc)+E(xc)   XCENC  =        33.61629744
  PAW double counting   =       561.60852518     -563.35235224
  entropy T*S    EENTRO =        -0.00000000
  eigenvalues    EBANDS =      -109.61301620
  atomic energy  EATOM  =       457.26981990
  Solvation  Ediel_sol  =         0.00000000
  ---------------------------------------------------
  free energy    TOTEN  =       -14.17380688 eV

  energy without entropy =      -14.17380688  energy(sigma->0) =      -14.17380688


--------------------------------------------------------------------------------------------------------




--------------------------------------- Iteration     13(   8)  ---------------------------------------


    POTLOK:  cpu time      0.0630: real time      0.0636
    SETDIJ:  cpu time      0.0905: real time      0.0911
     EDDAV:  cpu time      0.2372: real time      0.2397
       DOS:  cpu time      0.0005: real time      0.0005
    CHARGE:  cpu time      0.0645: real time      0.0658
    MIXING:  cpu time      0.0075: real time      0.0075
    --------------------------------------------
      LOOP:  cpu time      0.4632: real time      0.4682

 eigenvalue-minimisations  :    96
 total energy-change (2. order) :-0.2633496E-04  (-0.2456015E-06)
 number of electron       8.0000001 magnetization 
 augmentation part        0.6836940 magnetization 

 Broyden mixing:
  rms(total) = 0.53534E-04    rms(broyden)= 0.53111E-04
  rms(prec ) = 0.88325E-04
  weight for this iteration     100.00

 eigenvalues of (default mixing * dielectric matrix)
  average eigenvalue GAMMA=   2.3490
  5.6832  3.0502  2.5109  2.0917  0.9487  1.0124  1.1457

 Free energy of the ion-electron system (eV)
  ---------------------------------------------------
  alpha Z        PSCENC =         0.02803141
  Ewald energy   TEWEN  =       121.58268733
  -Hartree energ DENC   =      -515.31285127
  -exchange      EXHF   =         0.00000000
  -V(xc)+E(xc)   XCENC  =        33.61623211
  PAW double counting   =       561.60798451     -563.35180466
  entropy T*S    EENTRO =        -0.00000000
  eigenvalues    EBANDS =      -109.61393254
  atomic energy  EATOM  =       457.26981990
  Solvation  Ediel_sol  =         0.00000000
  ---------------------------------------------------
  free energy    TOTEN  =       -14.17383321 eV

  energy without entropy =      -14.17383321  energy(sigma->0) =      -14.17383321


--------------------------------------------------------------------------------------------------------




--------------------------------------- Iteration     13(   9)  ---------------------------------------


    POTLOK:  cpu time      0.1444: real time      0.1453
    SETDIJ:  cpu time      0.1166: real time      0.1174
     EDDAV:  cpu time      0.2611: real time      0.2634
       DOS:  cpu time      0.0006: real time      0.0007
    CHARGE:  cpu time      0.0640: real time      0.0651
    MIXING:  cpu time      0.0025: real time      0.0025
    --------------------------------------------
      LOOP:  cpu time      0.5891: real time      0.5944

 eigenvalue-minimisations  :    64
 total energy-change (2. order) :-0.1357920E-04  (-0.7060200E-07)
 number of electron       8.0000001 magnetization 
 augmentation part        0.6836893 magnetization 

 Broyden mixing:
  rms(total) = 0.26749E-04    rms(broyden)= 0.25952E-04
  rms(prec ) = 0.46790E-04
  weight for this iteration     100.00

 eigenvalues of (default mixing * dielectric matrix)
  average eigenvalue GAMMA=   2.5260
  6.7920  3.4943  0.9374  1.0007  1.0586  2.6188  2.3631  1.9432

 Free energy of the ion-electron system (eV)
  ---------------------------------------------------
  alpha Z        PSCENC =         0.02803141
  Ewald energy   TEWEN  =       121.58268733
  -Hartree energ DENC   =      -515.31329402
  -exchange      EXHF   =         0.00000000
  -V(xc)+E(xc)   XCENC  =        33.61625088
  PAW double counting   =       561.60983564     -563.35366782
  entropy T*S    EENTRO =        -0.00000000
  eigenvalues    EBANDS =      -109.61351011
  atomic energy  EATOM  =       457.26981990
  Solvation  Ediel_sol  =         0.00000000
  ---------------------------------------------------
  free energy    TOTEN  =       -14.17384679 eV

  energy without entropy =      -14.17384679  energy(sigma->0) =      -14.17384679


--------------------------------------------------------------------------------------------------------




--------------------------------------- Iteration     13(  10)  ---------------------------------------


    POTLOK:  cpu time      0.0645: real time      0.0650
    SETDIJ:  cpu time      0.0898: real time      0.0904
     EDDAV:  cpu time      0.2372: real time      0.2397
       DOS:  cpu time      0.0005: real time      0.0005
    CHARGE:  cpu time      0.0634: real time      0.0646
    MIXING:  cpu time      0.0026: real time      0.0027
    --------------------------------------------
      LOOP:  cpu time      0.4580: real time      0.4628

 eigenvalue-minimisations  :    96
 total energy-change (2. order) :-0.8629769E-05  (-0.3116178E-07)
 number of electron       8.0000001 magnetization 
 augmentation part        0.6836915 magnetization 

 Broyden mixing:
  rms(total) = 0.17458E-04    rms(broyden)= 0.16209E-04
  rms(prec ) = 0.24064E-04
  weight for this iteration     100.00

 eigenvalues of (default mixing * dielectric matrix)
  average eigenvalue GAMMA=   2.5661
  7.5811  3.8087  2.7831  2.1941  2.1941  0.9289  0.9858  1.0471  1.5721

 Free energy of the ion-electron system (eV)
  ---------------------------------------------------
  alpha Z        PSCENC =         0.02803141
  Ewald energy   TEWEN  =       121.58268733
  -Hartree energ DENC   =      -515.31285428
  -exchange      EXHF   =         0.00000000
  -V(xc)+E(xc)   XCENC  =        33.61622253
  PAW double counting   =       561.60907883     -563.35290396
  entropy T*S    EENTRO =        -0.00000000
  eigenvalues    EBANDS =      -109.61393718
  atomic energy  EATOM  =       457.26981990
  Solvation  Ediel_sol  =         0.00000000
  ---------------------------------------------------
  free energy    TOTEN  =       -14.17385542 eV

  energy without entropy =      -14.17385542  energy(sigma->0) =      -14.17385542


--------------------------------------------------------------------------------------------------------




--------------------------------------- Iteration     13(  11)  ---------------------------------------


    POTLOK:  cpu time      0.0640: real time      0.0654
    SETDIJ:  cpu time      0.0894: real time      0.0900
     EDDAV:  cpu time      0.3189: real time      0.3221
       DOS:  cpu time      0.0005: real time      0.0005
    CHARGE:  cpu time      0.0637: real time      0.0649
    MIXING:  cpu time      0.0025: real time      0.0025
    --------------------------------------------
      LOOP:  cpu time      0.5390: real time      0.5455

 eigenvalue-minimisations  :   128
 total energy-change (2. order) :-0.2568732E-05  (-0.2853657E-08)
 number of electron       8.0000001 magnetization 
 augmentation part        0.6836904 magnetization 

 Broyden mixing:
  rms(total) = 0.99063E-05    rms(broyden)= 0.75378E-05
  rms(prec ) = 0.13324E-04
  weight for this iteration     100.00
  WARNING: grid for Broyden might be to small

 eigenvalues of (default mixing * dielectric matrix)
  average eigenvalue GAMMA=   2.6412
  8.2077  4.6630  2.9311  2.5490  2.0038  2.0038  0.9270  0.9999  1.0552  1.0711

 Free energy of the ion-electron system (eV)
  ---------------------------------------------------
  alpha Z        PSCENC =         0.02803141
  Ewald energy   TEWEN  =       121.58268733
  -Hartree energ DENC   =      -515.31301907
  -exchange      EXHF   =         0.00000000
  -V(xc)+E(xc)   XCENC  =        33.61623015
  PAW double counting   =       561.60935934     -563.35318798
  entropy T*S    EENTRO =        -0.00000000
  eigenvalues    EBANDS =      -109.61377907
  atomic energy  EATOM  =       457.26981990
  Solvation  Ediel_sol  =         0.00000000
  ---------------------------------------------------
  free energy    TOTEN  =       -14.17385799 eV

  energy without entropy =      -14.17385799  energy(sigma->0) =      -14.17385799


--------------------------------------------------------------------------------------------------------




--------------------------------------- Iteration     13(  12)  ---------------------------------------


    POTLOK:  cpu time      0.0643: real time      0.0657
    SETDIJ:  cpu time      0.0897: real time      0.0903
     EDDAV:  cpu time      0.3165: real time      0.3196
       DOS:  cpu time      0.0005: real time      0.0005
    CHARGE:  cpu time      0.0633: real time      0.0646
    MIXING:  cpu time      0.0029: real time      0.0029
    --------------------------------------------
      LOOP:  cpu time      0.5372: real time      0.5435

 eigenvalue-minimisations  :   128
 total energy-change (2. order) :-0.1776650E-05  (-0.2941965E-08)
 number of electron       8.0000001 magnetization 
 augmentation part        0.6836907 magnetization 

 Broyden mixing:
  rms(total) = 0.75838E-05    rms(broyden)= 0.40278E-05
  rms(prec ) = 0.71540E-05
  weight for this iteration     100.00
  WARNING: grid for Broyden might be to small

 eigenvalues of (default mixing * dielectric matrix)
  average eigenvalue GAMMA=   2.7499
  8.7999  5.2135  3.4596  2.7563  2.4601  1.7958  1.7958  0.9263  1.0272  1.0072
  1.0072

 Free energy of the ion-electron system (eV)
  ---------------------------------------------------
  alpha Z        PSCENC =         0.02803141
  Ewald energy   TEWEN  =       121.58268733
  -Hartree energ DENC   =      -515.31297588
  -exchange      EXHF   =         0.00000000
  -V(xc)+E(xc)   XCENC  =        33.61622681
  PAW double counting   =       561.60926189     -563.35309021
  entropy T*S    EENTRO =        -0.00000000
  eigenvalues    EBANDS =      -109.61382100
  atomic energy  EATOM  =       457.26981990
  Solvation  Ediel_sol  =         0.00000000
  ---------------------------------------------------
  free energy    TOTEN  =       -14.17385977 eV

  energy without entropy =      -14.17385977  energy(sigma->0) =      -14.17385977


--------------------------------------------------------------------------------------------------------




--------------------------------------- Iteration     13(  13)  ---------------------------------------


    POTLOK:  cpu time      0.0651: real time      0.0663
    SETDIJ:  cpu time      0.0900: real time      0.0906
     EDDAV:  cpu time      0.2359: real time      0.2385
       DOS:  cpu time      0.0006: real time      0.0006
    CHARGE:  cpu time      0.0637: real time      0.0649
    MIXING:  cpu time      0.0032: real time      0.0032
    --------------------------------------------
      LOOP:  cpu time      0.4584: real time      0.4641

 eigenvalue-minimisations  :    96
 total energy-change (2. order) :-0.1123686E-05  (-0.1449234E-08)
 number of electron       8.0000001 magnetization 
 augmentation part        0.6836909 magnetization 

 Broyden mixing:
  rms(total) = 0.71339E-05    rms(broyden)= 0.31028E-05
  rms(prec ) = 0.40181E-05
  weight for this iteration     100.00
  WARNING: grid for Broyden might be to small

 eigenvalues of (default mixing * dielectric matrix)
  average eigenvalue GAMMA=   2.8302
  9.1771  5.9093  3.9568  2.8749  2.5088  2.2916  1.9667  1.3138  0.9272  1.0216
  1.0216  0.9929

 Free energy of the ion-electron system (eV)
  ---------------------------------------------------
  alpha Z        PSCENC =         0.02803141
  Ewald energy   TEWEN  =       121.58268733
  -Hartree energ DENC   =      -515.31294639
  -exchange      EXHF   =         0.00000000
  -V(xc)+E(xc)   XCENC  =        33.61622436
  PAW double counting   =       561.60920981     -563.35303748
  entropy T*S    EENTRO =        -0.00000000
  eigenvalues    EBANDS =      -109.61384983
  atomic energy  EATOM  =       457.26981990
  Solvation  Ediel_sol  =         0.00000000
  ---------------------------------------------------
  free energy    TOTEN  =       -14.17386089 eV

  energy without entropy =      -14.17386089  energy(sigma->0) =      -14.17386089


--------------------------------------------------------------------------------------------------------




--------------------------------------- Iteration     13(  14)  ---------------------------------------


    POTLOK:  cpu time      0.0661: real time      0.0666
    SETDIJ:  cpu time      0.0897: real time      0.0903
     EDDAV:  cpu time      0.2364: real time      0.2388
       DOS:  cpu time      0.0004: real time      0.0010
    CHARGE:  cpu time      0.0633: real time      0.0646
    MIXING:  cpu time      0.0029: real time      0.0029
    --------------------------------------------
      LOOP:  cpu time      0.4588: real time      0.4642

 eigenvalue-minimisations  :    96
 total energy-change (2. order) :-0.3767243E-06  (-0.1901039E-09)
 number of electron       8.0000001 magnetization 
 augmentation part        0.6836906 magnetization 

 Broyden mixing:
  rms(total) = 0.65551E-05    rms(broyden)= 0.13057E-05
  rms(prec ) = 0.17389E-05
  weight for this iteration     100.00
  WARNING: grid for Broyden might be to small

 eigenvalues of (default mixing * dielectric matrix)
  average eigenvalue GAMMA=   2.8670
  9.4534  6.4707  4.2322  3.1809  2.6952  2.4316  1.8769  1.8769  0.9287  0.9952
  1.0021  1.0636  1.0636

 Free energy of the ion-electron system (eV)
  ---------------------------------------------------
  alpha Z        PSCENC =         0.02803141
  Ewald energy   TEWEN  =       121.58268733
  -Hartree energ DENC   =      -515.31297878
  -exchange      EXHF   =         0.00000000
  -V(xc)+E(xc)   XCENC  =        33.61622602
  PAW double counting   =       561.60931511     -563.35314324
  entropy T*S    EENTRO =        -0.00000000
  eigenvalues    EBANDS =      -109.61381902
  atomic energy  EATOM  =       457.26981990
  Solvation  Ediel_sol  =         0.00000000
  ---------------------------------------------------
  free energy    TOTEN  =       -14.17386127 eV

  energy without entropy =      -14.17386127  energy(sigma->0) =      -14.17386127


--------------------------------------------------------------------------------------------------------




--------------------------------------- Iteration     13(  15)  ---------------------------------------


    POTLOK:  cpu time      0.0655: real time      0.0661
    SETDIJ:  cpu time      0.0892: real time      0.0898
     EDDAV:  cpu time      0.1766: real time      0.1784
       DOS:  cpu time      0.0006: real time      0.0006
    CHARGE:  cpu time      0.0637: real time      0.0648
    MIXING:  cpu time      0.0054: real time      0.0054
    --------------------------------------------
      LOOP:  cpu time      0.4009: real time      0.4051

 eigenvalue-minimisations  :    64
 total energy-change (2. order) :-0.1490048E-06  (-0.4044942E-10)
 number of electron       8.0000001 magnetization 
 augmentation part        0.6836908 magnetization 

 Broyden mixing:
  rms(total) = 0.64765E-05    rms(broyden)= 0.82550E-06
  rms(prec ) = 0.98461E-06
  weight for this iteration     100.00
  WARNING: grid for Broyden might be to small

 eigenvalues of (default mixing * dielectric matrix)
  average eigenvalue GAMMA=   2.8431
  9.6380  6.7413  4.5138  3.2851  2.7632  2.4839  2.0902  2.0902  1.2024  0.9307
  1.0013  1.0013  1.0308  1.0308

 Free energy of the ion-electron system (eV)
  ---------------------------------------------------
  alpha Z        PSCENC =         0.02803141
  Ewald energy   TEWEN  =       121.58268733
  -Hartree energ DENC   =      -515.31295067
  -exchange      EXHF   =         0.00000000
  -V(xc)+E(xc)   XCENC  =        33.61622449
  PAW double counting   =       561.60925449     -563.35308211
  entropy T*S    EENTRO =        -0.00000000
  eigenvalues    EBANDS =      -109.61384626
  atomic energy  EATOM  =       457.26981990
  Solvation  Ediel_sol  =         0.00000000
  ---------------------------------------------------
  free energy    TOTEN  =       -14.17386142 eV

  energy without entropy =      -14.17386142  energy(sigma->0) =      -14.17386142


--------------------------------------------------------------------------------------------------------




--------------------------------------- Iteration     13(  16)  ---------------------------------------


    POTLOK:  cpu time      0.0652: real time      0.0659
    SETDIJ:  cpu time      0.0907: real time      0.0913
     EDDAV:  cpu time      0.3143: real time      0.3175
       DOS:  cpu time      0.0005: real time      0.0005
    CHARGE:  cpu time      0.0634: real time      0.0645
    MIXING:  cpu time      0.0035: real time      0.0035
    --------------------------------------------
      LOOP:  cpu time      0.5375: real time      0.5432

 eigenvalue-minimisations  :   128
 total energy-change (2. order) :-0.5275888E-07  (-0.1487699E-10)
 number of electron       8.0000001 magnetization 
 augmentation part        0.6836907 magnetization 

 Broyden mixing:
  rms(total) = 0.64313E-05    rms(broyden)= 0.31441E-06
  rms(prec ) = 0.43030E-06
  weight for this iteration     100.00
  WARNING: grid for Broyden might be to small

 eigenvalues of (default mixing * dielectric matrix)
  average eigenvalue GAMMA=   2.8636
  9.8054  7.0143  4.8972  3.4867  2.8157  2.5161  2.5161  1.9220  1.9220  1.0741
  1.0741  0.9323  0.9947  0.9947  0.9893

 Free energy of the ion-electron system (eV)
  ---------------------------------------------------
  alpha Z        PSCENC =         0.02803141
  Ewald energy   TEWEN  =       121.58268733
  -Hartree energ DENC   =      -515.31295670
  -exchange      EXHF   =         0.00000000
  -V(xc)+E(xc)   XCENC  =        33.61622483
  PAW double counting   =       561.60926117     -563.35308906
  entropy T*S    EENTRO =        -0.00000000
  eigenvalues    EBANDS =      -109.61384035
  atomic energy  EATOM  =       457.26981990
  Solvation  Ediel_sol  =         0.00000000
  ---------------------------------------------------
  free energy    TOTEN  =       -14.17386147 eV

  energy without entropy =      -14.17386147  energy(sigma->0) =      -14.17386147


--------------------------------------------------------------------------------------------------------




--------------------------------------- Iteration     13(  17)  ---------------------------------------


    POTLOK:  cpu time      0.0701: real time      0.0707
    SETDIJ:  cpu time      0.0941: real time      0.0948
     EDDAV:  cpu time      0.1747: real time      0.1767
       DOS:  cpu time      0.0008: real time      0.0008
    CHARGE:  cpu time      0.0638: real time      0.0651
    MIXING:  cpu time      0.0041: real time      0.0042
    --------------------------------------------
      LOOP:  cpu time      0.4077: real time      0.4123

 eigenvalue-minimisations  :    64
 total energy-change (2. order) :-0.2506727E-07  (-0.1209166E-10)
 number of electron       8.0000001 magnetization 
 augmentation part        0.6836907 magnetization 

 Broyden mixing:
  rms(total) = 0.64268E-05    rms(broyden)= 0.20100E-06
  rms(prec ) = 0.25647E-06
  weight for this iteration     100.00
  WARNING: grid for Broyden might be to small

 eigenvalues of (default mixing * dielectric matrix)
  average eigenvalue GAMMA=   2.8424
  9.8674  7.2416  5.1544  3.8194  3.0037  2.6095  2.3496  1.9925  1.9925  1.2354
  1.2354  0.9313  0.9847  1.0000  1.0000  1.0614

 Free energy of the ion-electron system (eV)
  ---------------------------------------------------
  alpha Z        PSCENC =         0.02803141
  Ewald energy   TEWEN  =       121.58268733
  -Hartree energ DENC   =      -515.31296011
  -exchange      EXHF   =         0.00000000
  -V(xc)+E(xc)   XCENC  =        33.61622503
  PAW double counting   =       561.60926620     -563.35309422
  entropy T*S    EENTRO =        -0.00000000
  eigenvalues    EBANDS =      -109.61383704
  atomic energy  EATOM  =       457.26981990
  Solvation  Ediel_sol  =         0.00000000
  ---------------------------------------------------
  free energy    TOTEN  =       -14.17386149 eV

  energy without entropy =      -14.17386149  energy(sigma->0) =      -14.17386149


--------------------------------------------------------------------------------------------------------




--------------------------------------- Iteration     13(  18)  ---------------------------------------


    POTLOK:  cpu time      0.0650: real time      0.0662
    SETDIJ:  cpu time      0.0900: real time      0.0907
     EDDAV:  cpu time      0.2355: real time      0.2381
       DOS:  cpu time      0.0004: real time      0.0004
    --------------------------------------------
      LOOP:  cpu time      0.3909: real time      0.3953

 eigenvalue-minimisations  :    96
 total energy-change (2. order) :-0.6617142E-08  (-0.1367262E-10)
 number of electron       8.0000001 magnetization 
 augmentation part        0.6836907 magnetization 

 Free energy of the ion-electron system (eV)
  ---------------------------------------------------
  alpha Z        PSCENC =         0.02803141
  Ewald energy   TEWEN  =       121.58268733
  -Hartree energ DENC   =      -515.31295491
  -exchange      EXHF   =         0.00000000
  -V(xc)+E(xc)   XCENC  =        33.61622475
  PAW double counting   =       561.60925502     -563.35308292
  entropy T*S    EENTRO =        -0.00000000
  eigenvalues    EBANDS =      -109.61384208
  atomic energy  EATOM  =       457.26981990
  Solvation  Ediel_sol  =         0.00000000
  ---------------------------------------------------
  free energy    TOTEN  =       -14.17386150 eV

  energy without entropy =      -14.17386150  energy(sigma->0) =      -14.17386150


--------------------------------------------------------------------------------------------------------




 average (electrostatic) potential at core
  the test charge radii are     0.5201  0.7215
  (the norm of the test charge is              1.0000)
       1 -44.8387       2 -44.8347       3 -80.7501



 E-fermi :  -7.1170     XC(G=0):  -0.1047     alpha+bet : -0.0163

 val. band max:       -7.1708412893   @ k =   0.0000   0.0000   0.0000
 cond. band min:      -1.0690513684   @ k =   0.0000   0.0000   0.0000
 fundamental gap:      6.1017899209
 Fermi energy:        -7.1169711148

 k-point     1 :       0.0000    0.0000    0.0000
  band No.  band energies     occupation 
      1     -25.3323      2.00000
      2     -13.0415      2.00000
      3      -9.2623      2.00000
      4      -7.1708      2.00000
      5      -1.0691      0.00000
      6       0.0116      0.00000
      7       0.1968      0.00000
      8       0.2971      0.00000
      9       0.3121      0.00000
     10       0.3412      0.00000
     11       0.3480      0.00000
     12       0.4624      0.00000
     13       0.4972      0.00000
     14       0.6015      0.00000
     15       0.6226      0.00000
     16       0.7076      0.00000
     17       0.7080      0.00000
     18       0.7133      0.00000
     19       0.7174      0.00000
     20       0.7216      0.00000
     21       0.7296      0.00000
     22       0.7315      0.00000
     23       0.7369      0.00000
     24       0.9376      0.00000
     25       0.9377      0.00000
     26       1.0203      0.00000
     27       1.0345      0.00000
     28       1.0811      0.00000
     29       1.0851      0.00000
     30       1.0881      0.00000
     31       1.1046      0.00000
     32       1.2530      0.00000


--------------------------------------------------------------------------------------------------------


 soft charge-density along one line, spin component           1
         0         1         2         3         4         5         6         7         8         9
 total charge-density along one line

 pseudopotential strength for first ion, spin component:           1
 -2.379  -4.110  -0.023   0.000   0.002
 -4.110  -7.012  -0.042   0.000   0.005
 -0.023  -0.042  -0.283  -0.000  -0.005
  0.000   0.000  -0.000  -0.327  -0.000
  0.002   0.005  -0.005  -0.000  -0.325
 total augmentation occupancy for first ion, spin component:           1
  3.966  -0.866   0.708  -0.000  -0.104
 -0.866   0.236  -0.151  -0.000   0.027
  0.708  -0.151   0.127   0.000  -0.017
 -0.000  -0.000   0.000   0.038   0.000
 -0.104   0.027  -0.017   0.000   0.027


------------------------ aborting loop because EDIFF is reached ----------------------------------------


    CHARGE:  cpu time      0.0640: real time      0.0657
    FORLOC:  cpu time      0.0020: real time      0.0020
    FORNL :  cpu time      0.2450: real time      0.2478
    STRESS:  cpu time      0.9305: real time      0.9410
    FORCOR:  cpu time      0.0560: real time      0.0564
    FORHAR:  cpu time      0.0144: real time      0.0145
    MIXING:  cpu time      0.0026: real time      0.0027
    OFIELD:  cpu time      0.0000: real time      0.0000

 ---------------------------------------------------------------------------------------------

         DFTD3 V3.0 Rev 1        
 Edisp (eV)   -0.00134

 E6    (eV) :    -0.0013
 E8    (eV) :    -0.0001
 % E8        :  5.25
    FORVDW:  cpu time      0.0075: real time      0.0076

  FORCE on cell =-STRESS in cart. coord.  units (eV):
  Direction    XX          YY          ZZ          XY          YZ          ZX
  --------------------------------------------------------------------------------------
  Alpha Z     0.02803     0.02803     0.02803
  Ewald      57.26722    86.09297   -21.77747    22.22601    -0.83459    -1.72819
  Hartree   174.87133   179.83836   160.60327     3.82666    -0.14582    -0.31060
  E(xc)     -36.31349   -36.17114   -36.76832     0.11022    -0.00437    -0.00995
  Local    -317.83067  -343.50416  -248.67580   -19.78711     0.73852     1.51140
  n-local   -30.67806   -30.20948   -30.81191     0.36453    -0.00972    -0.00423
  augment     6.44720     5.93525     8.08392    -0.39620     0.01567     0.03558
  Kinetic   145.45090   137.27870   168.48858    -6.32171     0.23934     0.50366
  Fock        0.00000     0.00000     0.00000     0.00000     0.00000     0.00000
  vdW         0.00263     0.00800    -0.00000     0.00416    -0.00011    -0.00007
  -------------------------------------------------------------------------------------
  Total      -0.75490    -0.70345    -0.82970     0.02656    -0.00109    -0.00239
  in kB      -0.15119    -0.14088    -0.16617     0.00532    -0.00022    -0.00048
  external pressure =       -0.15 kB  Pullay stress =        0.00 kB


 VOLUME and BASIS-vectors are now :
 -----------------------------------------------------------------------------
  energy-cutoff  :      400.00
  volume of cell :     8000.00
      direct lattice vectors                 reciprocal lattice vectors
    20.000000000  0.000000000  0.000000000     0.050000000  0.000000000  0.000000000
     0.000000000 20.000000000  0.000000000     0.000000000  0.050000000  0.000000000
     0.000000000  0.000000000 20.000000000     0.000000000  0.000000000  0.050000000

  length of vectors
    20.000000000 20.000000000 20.000000000     0.050000000  0.050000000  0.050000000


 FORCES acting on ions
    electron-ion (+dipol)            ewald-force                    non-local-force                 convergence-correction
 -----------------------------------------------------------------------------------------------
   -.108E+02 0.871E+02 -.734E-01   0.118E+02 -.953E+02 0.794E-01   -.105E+01 0.819E+01 -.606E-02   0.383E-07 -.426E-06 0.806E-07
   -.790E+02 -.382E+02 0.178E+01   0.864E+02 0.417E+02 -.195E+01   -.744E+01 -.355E+01 0.168E+00   0.424E-06 0.101E-06 0.161E-06
   0.551E+02 -.301E+02 -.105E+01   -.983E+02 0.536E+02 0.187E+01   0.432E+02 -.235E+02 -.822E+00   -.577E-06 -.149E-05 0.126E-05
 -----------------------------------------------------------------------------------------------
   -.347E+02 0.189E+02 0.660E+00   0.000E+00 -.711E-14 0.000E+00   0.347E+02 -.189E+02 -.660E+00   -.115E-06 -.181E-05 0.150E-05


 POSITION                                       TOTAL-FORCE (eV/Angst)
 -----------------------------------------------------------------------------------
      9.80755      9.62347     10.00000        -0.000157      0.000668     -0.000021
     10.54234     10.97263      9.98000        -0.008757     -0.004518      0.000368
      9.65011     10.58390     10.00000         0.008913      0.003850     -0.000347
 -----------------------------------------------------------------------------------
    total drift:                               -0.008805      0.004995      0.000232


--------------------------------------------------------------------------------------------------------



  FREE ENERGIE OF THE ION-ELECTRON SYSTEM (eV)
  ---------------------------------------------------
  free  energy   TOTEN  =       -14.17520634 eV

  energy  without entropy=      -14.17520634  energy(sigma->0) =      -14.17520634

 d Force = 0.1818539E-07[-0.147E-04, 0.148E-04]  d Energy =-0.1671234E-08 0.199E-07
 d Force =-0.7190596E-05[ 0.781E-01,-0.781E-01]  d Ewald  =-0.7199698E-05 0.910E-08


--------------------------------------------------------------------------------------------------------


    POTLOK:  cpu time      0.1645: real time      0.1657


--------------------------------------------------------------------------------------------------------


 Finite differences progress:
  Degree of freedom:   6/  9
  Displacement:        2/  2
  Total:              12/ 18
    WAVPRE:  cpu time      0.0095: real time      0.0108
    FEWALD:  cpu time      0.0003: real time      0.0003
    ORTHCH:  cpu time      0.0143: real time      0.0145
     LOOP+:  cpu time     10.1511: real time     10.2671


--------------------------------------- Ionic step       14  -------------------------------------------




--------------------------------------- Iteration     14(   1)  ---------------------------------------


    POTLOK:  cpu time      0.0642: real time      0.0654
    SETDIJ:  cpu time      0.0899: real time      0.0906
     EDDAV:  cpu time      0.1699: real time      0.1717
       DOS:  cpu time      0.0007: real time      0.0007
    CHARGE:  cpu time      0.0643: real time      0.0656
    MIXING:  cpu time      0.0028: real time      0.0028
    --------------------------------------------
      LOOP:  cpu time      0.3918: real time      0.3968

 eigenvalue-minimisations  :    64
 total energy-change (2. order) : 0.9882818E-02  (-0.2405800E+00)
 number of electron       8.0000000 magnetization 
 augmentation part        0.6922947 magnetization 

 Broyden mixing:
  rms(total) = 0.38373E-01    rms(broyden)= 0.37917E-01
  rms(prec ) = 0.39595E-01
  weight for this iteration     100.00

 Free energy of the ion-electron system (eV)
  ---------------------------------------------------
  alpha Z        PSCENC =         0.02803141
  Ewald energy   TEWEN  =       123.58036449
  -Hartree energ DENC   =      -516.12584368
  -exchange      EXHF   =         0.00000000
  -V(xc)+E(xc)   XCENC  =        33.65046521
  PAW double counting   =       561.60926134     -563.35308927
  entropy T*S    EENTRO =        -0.00000000
  eigenvalues    EBANDS =      -110.82298808
  atomic energy  EATOM  =       457.26981990
  Solvation  Ediel_sol  =         0.00000000
  ---------------------------------------------------
  free energy    TOTEN  =       -14.16397867 eV

  energy without entropy =      -14.16397867  energy(sigma->0) =      -14.16397867


--------------------------------------------------------------------------------------------------------




--------------------------------------- Iteration     14(   2)  ---------------------------------------


    POTLOK:  cpu time      0.0636: real time      0.0646
    SETDIJ:  cpu time      0.0906: real time      0.0914
     EDDAV:  cpu time      0.1682: real time      0.1701
       DOS:  cpu time      0.0006: real time      0.0006
    CHARGE:  cpu time      0.0641: real time      0.0654
    MIXING:  cpu time      0.0035: real time      0.0035
    --------------------------------------------
      LOOP:  cpu time      0.3906: real time      0.3957

 eigenvalue-minimisations  :    64
 total energy-change (2. order) :-0.1838170E-04  (-0.3015546E-02)
 number of electron       8.0000000 magnetization 
 augmentation part        0.6899473 magnetization 

 Broyden mixing:
  rms(total) = 0.17489E-01    rms(broyden)= 0.17429E-01
  rms(prec ) = 0.18105E-01
  weight for this iteration     100.00

 eigenvalues of (default mixing * dielectric matrix)
  average eigenvalue GAMMA=   1.2617
  1.2617

 Free energy of the ion-electron system (eV)
  ---------------------------------------------------
  alpha Z        PSCENC =         0.02803141
  Ewald energy   TEWEN  =       123.58036449
  -Hartree energ DENC   =      -516.74963465
  -exchange      EXHF   =         0.00000000
  -V(xc)+E(xc)   XCENC  =        33.68676312
  PAW double counting   =       564.89097596     -566.64438126
  entropy T*S    EENTRO =        -0.00000000
  eigenvalues    EBANDS =      -110.22593603
  atomic energy  EATOM  =       457.26981990
  Solvation  Ediel_sol  =         0.00000000
  ---------------------------------------------------
  free energy    TOTEN  =       -14.16399706 eV

  energy without entropy =      -14.16399706  energy(sigma->0) =      -14.16399706


--------------------------------------------------------------------------------------------------------




--------------------------------------- Iteration     14(   3)  ---------------------------------------


    POTLOK:  cpu time      0.0667: real time      0.0677
    SETDIJ:  cpu time      0.0898: real time      0.0905
     EDDAV:  cpu time      0.3177: real time      0.3214
       DOS:  cpu time      0.0005: real time      0.0005
    CHARGE:  cpu time      0.0648: real time      0.0660
    MIXING:  cpu time      0.0032: real time      0.0033
    --------------------------------------------
      LOOP:  cpu time      0.5428: real time      0.5494

 eigenvalue-minimisations  :   128
 total energy-change (2. order) : 0.6028610E-04  (-0.8933421E-04)
 number of electron       8.0000000 magnetization 
 augmentation part        0.6895210 magnetization 

 Broyden mixing:
  rms(total) = 0.80390E-02    rms(broyden)= 0.80313E-02
  rms(prec ) = 0.83462E-02
  weight for this iteration     100.00

 eigenvalues of (default mixing * dielectric matrix)
  average eigenvalue GAMMA=   1.5789
  1.0986  2.0592

 Free energy of the ion-electron system (eV)
  ---------------------------------------------------
  alpha Z        PSCENC =         0.02803141
  Ewald energy   TEWEN  =       123.58036449
  -Hartree energ DENC   =      -516.87846182
  -exchange      EXHF   =         0.00000000
  -V(xc)+E(xc)   XCENC  =        33.69449499
  PAW double counting   =       566.95129857     -568.70920069
  entropy T*S    EENTRO =        -0.00000000
  eigenvalues    EBANDS =      -110.10028363
  atomic energy  EATOM  =       457.26981990
  Solvation  Ediel_sol  =         0.00000000
  ---------------------------------------------------
  free energy    TOTEN  =       -14.16393677 eV

  energy without entropy =      -14.16393677  energy(sigma->0) =      -14.16393677


--------------------------------------------------------------------------------------------------------




--------------------------------------- Iteration     14(   4)  ---------------------------------------


    POTLOK:  cpu time      0.0638: real time      0.0649
    SETDIJ:  cpu time      0.0901: real time      0.0908
     EDDAV:  cpu time      0.1683: real time      0.1701
       DOS:  cpu time      0.0005: real time      0.0005
    CHARGE:  cpu time      0.0645: real time      0.0656
    MIXING:  cpu time      0.0029: real time      0.0030
    --------------------------------------------
      LOOP:  cpu time      0.3902: real time      0.3949

 eigenvalue-minimisations  :    64
 total energy-change (2. order) :-0.2686015E-03  (-0.3768261E-04)
 number of electron       8.0000000 magnetization 
 augmentation part        0.6900119 magnetization 

 Broyden mixing:
  rms(total) = 0.18197E-02    rms(broyden)= 0.18073E-02
  rms(prec ) = 0.19409E-02
  weight for this iteration     100.00

 eigenvalues of (default mixing * dielectric matrix)
  average eigenvalue GAMMA=   1.4414
  2.3181  1.0031  1.0031

 Free energy of the ion-electron system (eV)
  ---------------------------------------------------
  alpha Z        PSCENC =         0.02803141
  Ewald energy   TEWEN  =       123.58036449
  -Hartree energ DENC   =      -516.87180820
  -exchange      EXHF   =         0.00000000
  -V(xc)+E(xc)   XCENC  =        33.69454797
  PAW double counting   =       568.46974798     -570.23060664
  entropy T*S    EENTRO =        -0.00000000
  eigenvalues    EBANDS =      -110.10430228
  atomic energy  EATOM  =       457.26981990
  Solvation  Ediel_sol  =         0.00000000
  ---------------------------------------------------
  free energy    TOTEN  =       -14.16420537 eV

  energy without entropy =      -14.16420537  energy(sigma->0) =      -14.16420537


--------------------------------------------------------------------------------------------------------




--------------------------------------- Iteration     14(   5)  ---------------------------------------


    POTLOK:  cpu time      0.0636: real time      0.0642
    SETDIJ:  cpu time      0.0916: real time      0.0922
     EDDAV:  cpu time      0.3226: real time      0.3261
       DOS:  cpu time      0.0005: real time      0.0005
    CHARGE:  cpu time      0.0638: real time      0.0651
    MIXING:  cpu time      0.0037: real time      0.0038
    --------------------------------------------
      LOOP:  cpu time      0.5459: real time      0.5519

 eigenvalue-minimisations  :   128
 total energy-change (2. order) :-0.3317867E-04  (-0.3586239E-05)
 number of electron       8.0000000 magnetization 
 augmentation part        0.6898359 magnetization 

 Broyden mixing:
  rms(total) = 0.88626E-03    rms(broyden)= 0.88529E-03
  rms(prec ) = 0.10039E-02
  weight for this iteration     100.00

 eigenvalues of (default mixing * dielectric matrix)
  average eigenvalue GAMMA=   1.5882
  2.5093  1.8815  1.1447  0.8172

 Free energy of the ion-electron system (eV)
  ---------------------------------------------------
  alpha Z        PSCENC =         0.02803141
  Ewald energy   TEWEN  =       123.58036449
  -Hartree energ DENC   =      -516.90454715
  -exchange      EXHF   =         0.00000000
  -V(xc)+E(xc)   XCENC  =        33.69633220
  PAW double counting   =       568.86620738     -570.62853595
  entropy T*S    EENTRO =        -0.00000000
  eigenvalues    EBANDS =      -110.07191084
  atomic energy  EATOM  =       457.26981990
  Solvation  Ediel_sol  =         0.00000000
  ---------------------------------------------------
  free energy    TOTEN  =       -14.16423855 eV

  energy without entropy =      -14.16423855  energy(sigma->0) =      -14.16423855


--------------------------------------------------------------------------------------------------------




--------------------------------------- Iteration     14(   6)  ---------------------------------------


    POTLOK:  cpu time      0.0625: real time      0.0648
    SETDIJ:  cpu time      0.0900: real time      0.0906
     EDDAV:  cpu time      0.3201: real time      0.3234
       DOS:  cpu time      0.0005: real time      0.0005
    CHARGE:  cpu time      0.0654: real time      0.0666
    MIXING:  cpu time      0.0025: real time      0.0025
    --------------------------------------------
      LOOP:  cpu time      0.5410: real time      0.5483

 eigenvalue-minimisations  :   128
 total energy-change (2. order) :-0.3231611E-04  (-0.1397742E-05)
 number of electron       8.0000000 magnetization 
 augmentation part        0.6897150 magnetization 

 Broyden mixing:
  rms(total) = 0.54077E-03    rms(broyden)= 0.54022E-03
  rms(prec ) = 0.63368E-03
  weight for this iteration     100.00

 eigenvalues of (default mixing * dielectric matrix)
  average eigenvalue GAMMA=   1.5011
  2.5405  2.0048  0.9327  1.0137  1.0137

 Free energy of the ion-electron system (eV)
  ---------------------------------------------------
  alpha Z        PSCENC =         0.02803141
  Ewald energy   TEWEN  =       123.58036449
  -Hartree energ DENC   =      -516.92634431
  -exchange      EXHF   =         0.00000000
  -V(xc)+E(xc)   XCENC  =        33.69737345
  PAW double counting   =       569.06516373     -570.82813417
  entropy T*S    EENTRO =        -0.00000000
  eigenvalues    EBANDS =      -110.05054536
  atomic energy  EATOM  =       457.26981990
  Solvation  Ediel_sol  =         0.00000000
  ---------------------------------------------------
  free energy    TOTEN  =       -14.16427087 eV

  energy without entropy =      -14.16427087  energy(sigma->0) =      -14.16427087


--------------------------------------------------------------------------------------------------------




--------------------------------------- Iteration     14(   7)  ---------------------------------------


    POTLOK:  cpu time      0.0642: real time      0.0653
    SETDIJ:  cpu time      0.0898: real time      0.0904
     EDDAV:  cpu time      0.3051: real time      0.3269
       DOS:  cpu time      0.0006: real time      0.0006
    CHARGE:  cpu time      0.0644: real time      0.0655
    MIXING:  cpu time      0.0025: real time      0.0025
    --------------------------------------------
      LOOP:  cpu time      0.5266: real time      0.5512

 eigenvalue-minimisations  :   128
 total energy-change (2. order) :-0.1657768E-04  (-0.6392119E-06)
 number of electron       8.0000000 magnetization 
 augmentation part        0.6898245 magnetization 

 Broyden mixing:
  rms(total) = 0.17166E-03    rms(broyden)= 0.17126E-03
  rms(prec ) = 0.27995E-03
  weight for this iteration     100.00

 eigenvalues of (default mixing * dielectric matrix)
  average eigenvalue GAMMA=   1.5221
  2.6469  1.8519  1.8046  1.0200  0.9047  0.9047

 Free energy of the ion-electron system (eV)
  ---------------------------------------------------
  alpha Z        PSCENC =         0.02803141
  Ewald energy   TEWEN  =       123.58036449
  -Hartree energ DENC   =      -516.91366541
  -exchange      EXHF   =         0.00000000
  -V(xc)+E(xc)   XCENC  =        33.69657900
  PAW double counting   =       569.04345954     -570.80622054
  entropy T*S    EENTRO =        -0.00000000
  eigenvalues    EBANDS =      -110.06265584
  atomic energy  EATOM  =       457.26981990
  Solvation  Ediel_sol  =         0.00000000
  ---------------------------------------------------
  free energy    TOTEN  =       -14.16428744 eV

  energy without entropy =      -14.16428744  energy(sigma->0) =      -14.16428744


--------------------------------------------------------------------------------------------------------




--------------------------------------- Iteration     14(   8)  ---------------------------------------


    POTLOK:  cpu time      0.0628: real time      0.0643
    SETDIJ:  cpu time      0.0897: real time      0.0903
     EDDAV:  cpu time      0.3225: real time      0.3256
       DOS:  cpu time      0.0005: real time      0.0005
    CHARGE:  cpu time      0.0634: real time      0.0646
    MIXING:  cpu time      0.0031: real time      0.0031
    --------------------------------------------
      LOOP:  cpu time      0.5419: real time      0.5485

 eigenvalue-minimisations  :   128
 total energy-change (2. order) :-0.2736010E-04  (-0.1941743E-06)
 number of electron       8.0000000 magnetization 
 augmentation part        0.6898167 magnetization 

 Broyden mixing:
  rms(total) = 0.10980E-03    rms(broyden)= 0.10971E-03
  rms(prec ) = 0.18307E-03
  weight for this iteration     100.00

 eigenvalues of (default mixing * dielectric matrix)
  average eigenvalue GAMMA=   1.6695
  3.4126  2.5187  1.8057  0.9805  0.9805  1.0421  0.9467

 Free energy of the ion-electron system (eV)
  ---------------------------------------------------
  alpha Z        PSCENC =         0.02803141
  Ewald energy   TEWEN  =       123.58036449
  -Hartree energ DENC   =      -516.91919125
  -exchange      EXHF   =         0.00000000
  -V(xc)+E(xc)   XCENC  =        33.69673936
  PAW double counting   =       569.04567962     -570.80840861
  entropy T*S    EENTRO =        -0.00000000
  eigenvalues    EBANDS =      -110.05734973
  atomic energy  EATOM  =       457.26981990
  Solvation  Ediel_sol  =         0.00000000
  ---------------------------------------------------
  free energy    TOTEN  =       -14.16431480 eV

  energy without entropy =      -14.16431480  energy(sigma->0) =      -14.16431480


--------------------------------------------------------------------------------------------------------




--------------------------------------- Iteration     14(   9)  ---------------------------------------


    POTLOK:  cpu time      0.0644: real time      0.0649
    SETDIJ:  cpu time      0.0899: real time      0.0906
     EDDAV:  cpu time      0.3596: real time      0.3630
       DOS:  cpu time      0.0005: real time      0.0005
    CHARGE:  cpu time      0.0558: real time      0.0955
    MIXING:  cpu time      0.0034: real time      0.0034
    --------------------------------------------
      LOOP:  cpu time      0.5736: real time      0.6180

 eigenvalue-minimisations  :   128
 total energy-change (2. order) :-0.2887826E-04  (-0.3351256E-06)
 number of electron       8.0000000 magnetization 
 augmentation part        0.6897953 magnetization 

 Broyden mixing:
  rms(total) = 0.66970E-04    rms(broyden)= 0.66829E-04
  rms(prec ) = 0.10445E-03
  weight for this iteration     100.00

 eigenvalues of (default mixing * dielectric matrix)
  average eigenvalue GAMMA=   1.9491
  5.0711  2.5976  2.1416  1.8894  0.9655  0.9655  0.9631  0.9993

 Free energy of the ion-electron system (eV)
  ---------------------------------------------------
  alpha Z        PSCENC =         0.02803141
  Ewald energy   TEWEN  =       123.58036449
  -Hartree energ DENC   =      -516.92597522
  -exchange      EXHF   =         0.00000000
  -V(xc)+E(xc)   XCENC  =        33.69696017
  PAW double counting   =       569.03786575     -570.80058394
  entropy T*S    EENTRO =        -0.00000000
  eigenvalues    EBANDS =      -110.05082624
  atomic energy  EATOM  =       457.26981990
  Solvation  Ediel_sol  =         0.00000000
  ---------------------------------------------------
  free energy    TOTEN  =       -14.16434368 eV

  energy without entropy =      -14.16434368  energy(sigma->0) =      -14.16434368


--------------------------------------------------------------------------------------------------------




--------------------------------------- Iteration     14(  10)  ---------------------------------------


    POTLOK:  cpu time      0.7543: real time      0.7574
    SETDIJ:  cpu time      0.0900: real time      0.0906
     EDDAV:  cpu time      0.1722: real time      0.1740
       DOS:  cpu time      0.0007: real time      0.0012
    CHARGE:  cpu time      0.0642: real time      0.0649
    MIXING:  cpu time      0.0030: real time      0.0030
    --------------------------------------------
      LOOP:  cpu time      1.0843: real time      1.0911

 eigenvalue-minimisations  :    64
 total energy-change (2. order) :-0.1684315E-04  (-0.1314692E-06)
 number of electron       8.0000000 magnetization 
 augmentation part        0.6898057 magnetization 

 Broyden mixing:
  rms(total) = 0.25030E-04    rms(broyden)= 0.24802E-04
  rms(prec ) = 0.44566E-04
  weight for this iteration     100.00

 eigenvalues of (default mixing * dielectric matrix)
  average eigenvalue GAMMA=   2.0876
  5.8140  3.0324  2.4491  1.8032  1.8032  0.9631  0.9631  0.9448  1.0152

 Free energy of the ion-electron system (eV)
  ---------------------------------------------------
  alpha Z        PSCENC =         0.02803141
  Ewald energy   TEWEN  =       123.58036449
  -Hartree energ DENC   =      -516.92619075
  -exchange      EXHF   =         0.00000000
  -V(xc)+E(xc)   XCENC  =        33.69689931
  PAW double counting   =       569.03166242     -570.79439284
  entropy T*S    EENTRO =        -0.00000000
  eigenvalues    EBANDS =      -110.05055447
  atomic energy  EATOM  =       457.26981990
  Solvation  Ediel_sol  =         0.00000000
  ---------------------------------------------------
  free energy    TOTEN  =       -14.16436053 eV

  energy without entropy =      -14.16436053  energy(sigma->0) =      -14.16436053


--------------------------------------------------------------------------------------------------------




--------------------------------------- Iteration     14(  11)  ---------------------------------------


    POTLOK:  cpu time      0.2160: real time      0.2172
    SETDIJ:  cpu time      0.0900: real time      0.0906
     EDDAV:  cpu time      0.2373: real time      0.2399
       DOS:  cpu time      0.0005: real time      0.0005
    CHARGE:  cpu time      0.0640: real time      0.0652
    MIXING:  cpu time      0.0026: real time      0.0026
    --------------------------------------------
      LOOP:  cpu time      0.6104: real time      0.6161

 eigenvalue-minimisations  :    96
 total energy-change (2. order) :-0.8189367E-05  (-0.3452616E-07)
 number of electron       8.0000000 magnetization 
 augmentation part        0.6898040 magnetization 

 Broyden mixing:
  rms(total) = 0.16209E-04    rms(broyden)= 0.15915E-04
  rms(prec ) = 0.24163E-04
  weight for this iteration     100.00

 eigenvalues of (default mixing * dielectric matrix)
  average eigenvalue GAMMA=   2.1448
  6.8539  3.3377  2.5465  1.9189  1.9189  0.9648  0.9648  1.0064  1.0064  0.9295

 Free energy of the ion-electron system (eV)
  ---------------------------------------------------
  alpha Z        PSCENC =         0.02803141
  Ewald energy   TEWEN  =       123.58036449
  -Hartree energ DENC   =      -516.92600545
  -exchange      EXHF   =         0.00000000
  -V(xc)+E(xc)   XCENC  =        33.69688082
  PAW double counting   =       569.03552705     -570.79828685
  entropy T*S    EENTRO =        -0.00000000
  eigenvalues    EBANDS =      -110.05070009
  atomic energy  EATOM  =       457.26981990
  Solvation  Ediel_sol  =         0.00000000
  ---------------------------------------------------
  free energy    TOTEN  =       -14.16436872 eV

  energy without entropy =      -14.16436872  energy(sigma->0) =      -14.16436872


--------------------------------------------------------------------------------------------------------




--------------------------------------- Iteration     14(  12)  ---------------------------------------


    POTLOK:  cpu time      0.0645: real time      0.0655
    SETDIJ:  cpu time      0.0896: real time      0.0902
     EDDAV:  cpu time      0.3171: real time      0.3202
       DOS:  cpu time      0.0004: real time      0.0004
    CHARGE:  cpu time      0.0636: real time      0.0648
    MIXING:  cpu time      0.0030: real time      0.0030
    --------------------------------------------
      LOOP:  cpu time      0.5382: real time      0.5442

 eigenvalue-minimisations  :   128
 total energy-change (2. order) :-0.2026917E-05  (-0.3194476E-08)
 number of electron       8.0000000 magnetization 
 augmentation part        0.6898026 magnetization 

 Broyden mixing:
  rms(total) = 0.94431E-05    rms(broyden)= 0.89479E-05
  rms(prec ) = 0.14762E-04
  weight for this iteration     100.00

 eigenvalues of (default mixing * dielectric matrix)
  average eigenvalue GAMMA=   2.2901
  7.7362  3.9409  2.6371  2.3870  1.7944  1.7944  0.9653  0.9653  0.9625  0.9625
  1.0452

 Free energy of the ion-electron system (eV)
  ---------------------------------------------------
  alpha Z        PSCENC =         0.02803141
  Ewald energy   TEWEN  =       123.58036449
  -Hartree energ DENC   =      -516.92613377
  -exchange      EXHF   =         0.00000000
  -V(xc)+E(xc)   XCENC  =        33.69688241
  PAW double counting   =       569.03738050     -570.80014010
  entropy T*S    EENTRO =        -0.00000000
  eigenvalues    EBANDS =      -110.05057559
  atomic energy  EATOM  =       457.26981990
  Solvation  Ediel_sol  =         0.00000000
  ---------------------------------------------------
  free energy    TOTEN  =       -14.16437074 eV

  energy without entropy =      -14.16437074  energy(sigma->0) =      -14.16437074


--------------------------------------------------------------------------------------------------------




--------------------------------------- Iteration     14(  13)  ---------------------------------------


    POTLOK:  cpu time      0.0681: real time      0.0692
    SETDIJ:  cpu time      0.0901: real time      0.0907
     EDDAV:  cpu time      0.3159: real time      0.3200
       DOS:  cpu time      0.0005: real time      0.0005
    CHARGE:  cpu time      0.0639: real time      0.0651
    MIXING:  cpu time      0.0029: real time      0.0030
    --------------------------------------------
      LOOP:  cpu time      0.5415: real time      0.5485

 eigenvalue-minimisations  :   128
 total energy-change (2. order) :-0.2108765E-05  (-0.3649825E-08)
 number of electron       8.0000000 magnetization 
 augmentation part        0.6898028 magnetization 

 Broyden mixing:
  rms(total) = 0.53409E-05    rms(broyden)= 0.44130E-05
  rms(prec ) = 0.70886E-05
  weight for this iteration     100.00
  WARNING: grid for Broyden might be to small

 eigenvalues of (default mixing * dielectric matrix)
  average eigenvalue GAMMA=   2.3635
  8.3899  4.6609  2.9002  2.5059  1.9820  1.8719  0.9648  0.9648  0.9588  0.9588
  1.1021  1.1021

 Free energy of the ion-electron system (eV)
  ---------------------------------------------------
  alpha Z        PSCENC =         0.02803141
  Ewald energy   TEWEN  =       123.58036449
  -Hartree energ DENC   =      -516.92592523
  -exchange      EXHF   =         0.00000000
  -V(xc)+E(xc)   XCENC  =        33.69687113
  PAW double counting   =       569.03668735     -570.79943077
  entropy T*S    EENTRO =        -0.00000000
  eigenvalues    EBANDS =      -110.05079114
  atomic energy  EATOM  =       457.26981990
  Solvation  Ediel_sol  =         0.00000000
  ---------------------------------------------------
  free energy    TOTEN  =       -14.16437285 eV

  energy without entropy =      -14.16437285  energy(sigma->0) =      -14.16437285


--------------------------------------------------------------------------------------------------------




--------------------------------------- Iteration     14(  14)  ---------------------------------------


    POTLOK:  cpu time      0.0653: real time      0.0658
    SETDIJ:  cpu time      0.0899: real time      0.0905
     EDDAV:  cpu time      0.3211: real time      0.3242
       DOS:  cpu time      0.0005: real time      0.0005
    CHARGE:  cpu time      0.0637: real time      0.0649
    MIXING:  cpu time      0.0029: real time      0.0030
    --------------------------------------------
      LOOP:  cpu time      0.5433: real time      0.5489

 eigenvalue-minimisations  :   128
 total energy-change (2. order) :-0.6754888E-06  (-0.5598810E-09)
 number of electron       8.0000000 magnetization 
 augmentation part        0.6898036 magnetization 

 Broyden mixing:
  rms(total) = 0.43769E-05    rms(broyden)= 0.31795E-05
  rms(prec ) = 0.45176E-05
  weight for this iteration     100.00
  WARNING: grid for Broyden might be to small

 eigenvalues of (default mixing * dielectric matrix)
  average eigenvalue GAMMA=   2.5051
  8.8797  5.4319  3.4590  2.6386  2.4548  1.9010  1.8647  0.9651  0.9651  0.9549
  0.9549  1.0484  1.0484

 Free energy of the ion-electron system (eV)
  ---------------------------------------------------
  alpha Z        PSCENC =         0.02803141
  Ewald energy   TEWEN  =       123.58036449
  -Hartree energ DENC   =      -516.92581350
  -exchange      EXHF   =         0.00000000
  -V(xc)+E(xc)   XCENC  =        33.69686482
  PAW double counting   =       569.03596057     -570.79869985
  entropy T*S    EENTRO =        -0.00000000
  eigenvalues    EBANDS =      -110.05090136
  atomic energy  EATOM  =       457.26981990
  Solvation  Ediel_sol  =         0.00000000
  ---------------------------------------------------
  free energy    TOTEN  =       -14.16437353 eV

  energy without entropy =      -14.16437353  energy(sigma->0) =      -14.16437353


--------------------------------------------------------------------------------------------------------




--------------------------------------- Iteration     14(  15)  ---------------------------------------


    POTLOK:  cpu time      0.0651: real time      0.0657
    SETDIJ:  cpu time      0.0902: real time      0.0909
     EDDAV:  cpu time      0.2353: real time      0.2378
       DOS:  cpu time      0.0005: real time      0.0005
    CHARGE:  cpu time      0.0635: real time      0.0647
    MIXING:  cpu time      0.0033: real time      0.0033
    --------------------------------------------
      LOOP:  cpu time      0.4580: real time      0.4630

 eigenvalue-minimisations  :    96
 total energy-change (2. order) :-0.5158012E-06  (-0.4318395E-09)
 number of electron       8.0000000 magnetization 
 augmentation part        0.6898030 magnetization 

 Broyden mixing:
  rms(total) = 0.33678E-05    rms(broyden)= 0.15183E-05
  rms(prec ) = 0.19711E-05
  weight for this iteration     100.00
  WARNING: grid for Broyden might be to small

 eigenvalues of (default mixing * dielectric matrix)
  average eigenvalue GAMMA=   2.5503
  9.1917  5.9198  3.7682  2.7563  2.4259  2.1842  1.7698  1.7698  0.9654  0.9654
  0.9450  0.9710  1.0359  1.0359

 Free energy of the ion-electron system (eV)
  ---------------------------------------------------
  alpha Z        PSCENC =         0.02803141
  Ewald energy   TEWEN  =       123.58036449
  -Hartree energ DENC   =      -516.92590574
  -exchange      EXHF   =         0.00000000
  -V(xc)+E(xc)   XCENC  =        33.69687003
  PAW double counting   =       569.03606503     -570.79881064
  entropy T*S    EENTRO =        -0.00000000
  eigenvalues    EBANDS =      -110.05080852
  atomic energy  EATOM  =       457.26981990
  Solvation  Ediel_sol  =         0.00000000
  ---------------------------------------------------
  free energy    TOTEN  =       -14.16437404 eV

  energy without entropy =      -14.16437404  energy(sigma->0) =      -14.16437404


--------------------------------------------------------------------------------------------------------




--------------------------------------- Iteration     14(  16)  ---------------------------------------


    POTLOK:  cpu time      0.0656: real time      0.0661
    SETDIJ:  cpu time      0.0902: real time      0.0909
     EDDAV:  cpu time      0.1691: real time      0.1709
       DOS:  cpu time      0.0004: real time      0.0004
    CHARGE:  cpu time      0.0637: real time      0.0649
    MIXING:  cpu time      0.0031: real time      0.0032
    --------------------------------------------
      LOOP:  cpu time      0.3922: real time      0.3965

 eigenvalue-minimisations  :    64
 total energy-change (2. order) :-0.1525816E-06  (-0.3779554E-10)
 number of electron       8.0000000 magnetization 
 augmentation part        0.6898033 magnetization 

 Broyden mixing:
  rms(total) = 0.30807E-05    rms(broyden)= 0.67582E-06
  rms(prec ) = 0.92115E-06
  weight for this iteration     100.00
  WARNING: grid for Broyden might be to small

 eigenvalues of (default mixing * dielectric matrix)
  average eigenvalue GAMMA=   2.5838
  9.4837  6.3993  4.2392  2.9472  2.5566  2.2167  2.0503  1.8041  0.9654  0.9654
  1.1841  1.0195  1.0195  0.9528  0.9528

 Free energy of the ion-electron system (eV)
  ---------------------------------------------------
  alpha Z        PSCENC =         0.02803141
  Ewald energy   TEWEN  =       123.58036449
  -Hartree energ DENC   =      -516.92586740
  -exchange      EXHF   =         0.00000000
  -V(xc)+E(xc)   XCENC  =        33.69686774
  PAW double counting   =       569.03613666     -570.79888159
  entropy T*S    EENTRO =        -0.00000000
  eigenvalues    EBANDS =      -110.05084541
  atomic energy  EATOM  =       457.26981990
  Solvation  Ediel_sol  =         0.00000000
  ---------------------------------------------------
  free energy    TOTEN  =       -14.16437419 eV

  energy without entropy =      -14.16437419  energy(sigma->0) =      -14.16437419


--------------------------------------------------------------------------------------------------------




--------------------------------------- Iteration     14(  17)  ---------------------------------------


    POTLOK:  cpu time      0.0678: real time      0.0683
    SETDIJ:  cpu time      0.0899: real time      0.0905
     EDDAV:  cpu time      0.1697: real time      0.1719
       DOS:  cpu time      0.0007: real time      0.0012
    CHARGE:  cpu time      0.0636: real time      0.0644
    MIXING:  cpu time      0.0032: real time      0.0032
    --------------------------------------------
      LOOP:  cpu time      0.3949: real time      0.3995

 eigenvalue-minimisations  :    64
 total energy-change (2. order) :-0.7065398E-07  (-0.1816325E-10)
 number of electron       8.0000000 magnetization 
 augmentation part        0.6898032 magnetization 

 Broyden mixing:
  rms(total) = 0.30193E-05    rms(broyden)= 0.28958E-06
  rms(prec ) = 0.42442E-06
  weight for this iteration     100.00
  WARNING: grid for Broyden might be to small

 eigenvalues of (default mixing * dielectric matrix)
  average eigenvalue GAMMA=   2.6116
  9.7045  6.8044  4.6214  3.1750  2.6486  2.4742  1.9639  1.8514  1.6501  0.9655
  0.9655  1.0765  1.0055  1.0055  0.9368  0.9368

 Free energy of the ion-electron system (eV)
  ---------------------------------------------------
  alpha Z        PSCENC =         0.02803141
  Ewald energy   TEWEN  =       123.58036449
  -Hartree energ DENC   =      -516.92589044
  -exchange      EXHF   =         0.00000000
  -V(xc)+E(xc)   XCENC  =        33.69686880
  PAW double counting   =       569.03619633     -570.79894107
  entropy T*S    EENTRO =        -0.00000000
  eigenvalues    EBANDS =      -110.05082368
  atomic energy  EATOM  =       457.26981990
  Solvation  Ediel_sol  =         0.00000000
  ---------------------------------------------------
  free energy    TOTEN  =       -14.16437427 eV

  energy without entropy =      -14.16437427  energy(sigma->0) =      -14.16437427


--------------------------------------------------------------------------------------------------------




--------------------------------------- Iteration     14(  18)  ---------------------------------------


    POTLOK:  cpu time      0.0706: real time      0.0718
    SETDIJ:  cpu time      0.0893: real time      0.0900
     EDDAV:  cpu time      0.2363: real time      0.2387
       DOS:  cpu time      0.0005: real time      0.0005
    CHARGE:  cpu time      0.0633: real time      0.0646
    MIXING:  cpu time      0.0036: real time      0.0036
    --------------------------------------------
      LOOP:  cpu time      0.4636: real time      0.4692

 eigenvalue-minimisations  :    96
 total energy-change (2. order) :-0.2845263E-07  (-0.1505818E-10)
 number of electron       8.0000000 magnetization 
 augmentation part        0.6898032 magnetization 

 Broyden mixing:
  rms(total) = 0.30087E-05    rms(broyden)= 0.14207E-06
  rms(prec ) = 0.21573E-06
  weight for this iteration     100.00
  WARNING: grid for Broyden might be to small

 eigenvalues of (default mixing * dielectric matrix)
  average eigenvalue GAMMA=   2.6190
  9.7635  7.1293  4.8176  3.5059  2.7124  2.4199  2.3786  1.9720  1.8235  0.9654
  0.9654  1.1854  1.0247  0.9923  0.9923  0.9376  0.9376

 Free energy of the ion-electron system (eV)
  ---------------------------------------------------
  alpha Z        PSCENC =         0.02803141
  Ewald energy   TEWEN  =       123.58036449
  -Hartree energ DENC   =      -516.92588945
  -exchange      EXHF   =         0.00000000
  -V(xc)+E(xc)   XCENC  =        33.69686874
  PAW double counting   =       569.03617836     -570.79892290
  entropy T*S    EENTRO =        -0.00000000
  eigenvalues    EBANDS =      -110.05082485
  atomic energy  EATOM  =       457.26981990
  Solvation  Ediel_sol  =         0.00000000
  ---------------------------------------------------
  free energy    TOTEN  =       -14.16437429 eV

  energy without entropy =      -14.16437429  energy(sigma->0) =      -14.16437429


--------------------------------------------------------------------------------------------------------




--------------------------------------- Iteration     14(  19)  ---------------------------------------


    POTLOK:  cpu time      0.0668: real time      0.0673
    SETDIJ:  cpu time      0.0895: real time      0.0902
     EDDAV:  cpu time      0.1723: real time      0.1740
       DOS:  cpu time      0.0004: real time      0.0004
    --------------------------------------------
      LOOP:  cpu time      0.3290: real time      0.3319

 eigenvalue-minimisations  :    64
 total energy-change (2. order) :-0.9145310E-08  (-0.1611689E-10)
 number of electron       8.0000000 magnetization 
 augmentation part        0.6898032 magnetization 

 Free energy of the ion-electron system (eV)
  ---------------------------------------------------
  alpha Z        PSCENC =         0.02803141
  Ewald energy   TEWEN  =       123.58036449
  -Hartree energ DENC   =      -516.92588846
  -exchange      EXHF   =         0.00000000
  -V(xc)+E(xc)   XCENC  =        33.69686872
  PAW double counting   =       569.03615425     -570.79889884
  entropy T*S    EENTRO =        -0.00000000
  eigenvalues    EBANDS =      -110.05082578
  atomic energy  EATOM  =       457.26981990
  Solvation  Ediel_sol  =         0.00000000
  ---------------------------------------------------
  free energy    TOTEN  =       -14.16437430 eV

  energy without entropy =      -14.16437430  energy(sigma->0) =      -14.16437430


--------------------------------------------------------------------------------------------------------




 average (electrostatic) potential at core
  the test charge radii are     0.5201  0.7215
  (the norm of the test charge is              1.0000)
       1 -44.8805       2 -45.0733       3 -80.7471



 E-fermi :  -7.0688     XC(G=0):  -0.1041     alpha+bet : -0.0163

 val. band max:       -7.1855808673   @ k =   0.0000   0.0000   0.0000
 cond. band min:      -1.0353575358   @ k =   0.0000   0.0000   0.0000
 fundamental gap:      6.1502233315
 Fermi energy:        -7.0688353965

 k-point     1 :       0.0000    0.0000    0.0000
  band No.  band energies     occupation 
      1     -25.4238      2.00000
      2     -13.2208      2.00000
      3      -9.1952      2.00000
      4      -7.1856      2.00000
      5      -1.0354      0.00000
      6       0.0129      0.00000
      7       0.2033      0.00000
      8       0.2980      0.00000
      9       0.3135      0.00000
     10       0.3415      0.00000
     11       0.3483      0.00000
     12       0.4648      0.00000
     13       0.5018      0.00000
     14       0.6023      0.00000
     15       0.6240      0.00000
     16       0.7080      0.00000
     17       0.7084      0.00000
     18       0.7142      0.00000
     19       0.7182      0.00000
     20       0.7224      0.00000
     21       0.7300      0.00000
     22       0.7314      0.00000
     23       0.7369      0.00000
     24       0.9392      0.00000
     25       0.9440      0.00000
     26       1.0208      0.00000
     27       1.0353      0.00000
     28       1.0810      0.00000
     29       1.0856      0.00000
     30       1.0885      0.00000
     31       1.1055      0.00000
     32       1.2582      0.00000


--------------------------------------------------------------------------------------------------------


 soft charge-density along one line, spin component           1
         0         1         2         3         4         5         6         7         8         9
 total charge-density along one line

 pseudopotential strength for first ion, spin component:           1
 -2.380  -4.110  -0.023   0.000   0.002
 -4.110  -7.013  -0.043   0.000   0.004
 -0.023  -0.043  -0.282  -0.000  -0.004
  0.000   0.000  -0.000  -0.326  -0.000
  0.002   0.004  -0.004  -0.000  -0.325
 total augmentation occupancy for first ion, spin component:           1
  3.978  -0.867   0.718  -0.000  -0.090
 -0.867   0.236  -0.153   0.000   0.025
  0.718  -0.153   0.130  -0.000  -0.015
 -0.000   0.000  -0.000   0.039  -0.000
 -0.090   0.025  -0.015  -0.000   0.027


------------------------ aborting loop because EDIFF is reached ----------------------------------------


    CHARGE:  cpu time      0.0648: real time      0.0655
    FORLOC:  cpu time      0.0019: real time      0.0019
    FORNL :  cpu time      0.4697: real time      0.4736
    STRESS:  cpu time      1.6386: real time      1.6523
    FORCOR:  cpu time      0.0558: real time      0.0562
    FORHAR:  cpu time      0.0144: real time      0.0145
    MIXING:  cpu time      0.0027: real time      0.0027
    OFIELD:  cpu time      0.0000: real time      0.0000

 ---------------------------------------------------------------------------------------------

         DFTD3 V3.0 Rev 1        
 Edisp (eV)   -0.00133

 E6    (eV) :    -0.0013
 E8    (eV) :    -0.0001
 % E8        :  5.24
    FORVDW:  cpu time      0.0079: real time      0.0080

  FORCE on cell =-STRESS in cart. coord.  units (eV):
  Direction    XX          YY          ZZ          XY          YZ          ZX
  --------------------------------------------------------------------------------------
  Alpha Z     0.02803     0.02803     0.02803
  Ewald      57.64841    87.74798   -21.81606    25.06429    -0.00008     0.00019
  Hartree   175.13298   180.60942   161.18350     4.20313    -0.00002     0.00004
  E(xc)     -36.40751   -36.24882   -36.85250     0.12371    -0.00000     0.00000
  Local    -318.13664  -345.54769  -249.34001   -22.07110     0.00007    -0.00017
  n-local   -31.01047   -30.44720   -30.96351     0.27793    -0.00000    -0.00001
  augment     6.49478     5.95692     8.12150    -0.43751     0.00000    -0.00001
  Kinetic   146.25682   137.37397   168.81034    -6.89403     0.00002    -0.00006
  Fock        0.00000     0.00000     0.00000     0.00000     0.00000     0.00000
  vdW         0.00256     0.00798    -0.00000     0.00414     0.00000     0.00000
  -------------------------------------------------------------------------------------
  Total       0.00897    -0.51941    -0.82872     0.27056     0.00000    -0.00002
  in kB       0.00180    -0.10402    -0.16597     0.05419     0.00000    -0.00000
  external pressure =       -0.09 kB  Pullay stress =        0.00 kB


 VOLUME and BASIS-vectors are now :
 -----------------------------------------------------------------------------
  energy-cutoff  :      400.00
  volume of cell :     8000.00
      direct lattice vectors                 reciprocal lattice vectors
    20.000000000  0.000000000  0.000000000     0.050000000  0.000000000  0.000000000
     0.000000000 20.000000000  0.000000000     0.000000000  0.050000000  0.000000000
     0.000000000  0.000000000 20.000000000     0.000000000  0.000000000  0.050000000

  length of vectors
    20.000000000 20.000000000 20.000000000     0.050000000  0.050000000  0.050000000


 FORCES acting on ions
    electron-ion (+dipol)            ewald-force                    non-local-force                 convergence-correction
 -----------------------------------------------------------------------------------------------
   -.911E+01 0.878E+02 -.150E-03   0.101E+02 -.962E+02 0.165E-03   -.875E+00 0.831E+01 -.131E-04   0.409E-07 -.134E-06 0.174E-06
   -.806E+02 -.397E+02 -.171E-03   0.894E+02 0.439E+02 0.191E-03   -.793E+01 -.388E+01 -.188E-04   0.115E-06 0.737E-07 0.161E-06
   0.554E+02 -.291E+02 0.195E-03   -.995E+02 0.523E+02 -.355E-03   0.431E+02 -.233E+02 0.152E-03   -.820E-06 -.219E-06 0.315E-05
 -----------------------------------------------------------------------------------------------
   -.343E+02 0.189E+02 -.127E-03   0.000E+00 0.000E+00 0.401E-17   0.343E+02 -.189E+02 0.121E-03   -.664E-06 -.280E-06 0.349E-05


 POSITION                                       TOTAL-FORCE (eV/Angst)
 -----------------------------------------------------------------------------------
      9.80755      9.62347     10.00000         0.098047     -0.073964      0.000003
     10.54234     10.97263     10.00000         0.863079      0.287239      0.000002
      9.67011     10.58390     10.00000        -0.961126     -0.213274     -0.000004
 -----------------------------------------------------------------------------------
    total drift:                               -0.006651      0.004837     -0.000003


--------------------------------------------------------------------------------------------------------



  FREE ENERGIE OF THE ION-ELECTRON SYSTEM (eV)
  ---------------------------------------------------
  free  energy   TOTEN  =       -14.16570811 eV

  energy  without entropy=      -14.16570811  energy(sigma->0) =      -14.16570811

 d Force =-0.9518429E-02[-0.192E-01, 0.186E-03]  d Energy =-0.9498226E-02-0.202E-04
 d Force =-0.1997274E+01[-0.199E+01,-0.200E+01]  d Ewald  =-0.1997677E+01 0.403E-03


--------------------------------------------------------------------------------------------------------


    POTLOK:  cpu time      0.1554: real time      0.1566


--------------------------------------------------------------------------------------------------------


 Finite differences progress:
  Degree of freedom:   7/  9
  Displacement:        1/  2
  Total:              13/ 18
    WAVPRE:  cpu time      0.0096: real time      0.0109
    FEWALD:  cpu time      0.0003: real time      0.0003
    ORTHCH:  cpu time      0.0146: real time      0.0148
     LOOP+:  cpu time     12.4090: real time     12.5962


--------------------------------------- Ionic step       15  -------------------------------------------




--------------------------------------- Iteration     15(   1)  ---------------------------------------


    POTLOK:  cpu time      0.0635: real time      0.0648
    SETDIJ:  cpu time      0.0902: real time      0.0910
     EDDAV:  cpu time      0.1689: real time      0.1708
       DOS:  cpu time      0.0007: real time      0.0007
    CHARGE:  cpu time      0.0639: real time      0.0651
    MIXING:  cpu time      0.0019: real time      0.0020
    --------------------------------------------
      LOOP:  cpu time      0.3892: real time      0.3944

 eigenvalue-minimisations  :    64
 total energy-change (2. order) :-0.7336916E-03  (-0.9022830E+00)
 number of electron       8.0000001 magnetization 
 augmentation part        0.6722435 magnetization 

 Broyden mixing:
  rms(total) = 0.75530E-01    rms(broyden)= 0.74694E-01
  rms(prec ) = 0.78246E-01
  weight for this iteration     100.00

 Free energy of the ion-electron system (eV)
  ---------------------------------------------------
  alpha Z        PSCENC =         0.02803141
  Ewald energy   TEWEN  =       119.64659565
  -Hartree energ DENC   =      -515.24654427
  -exchange      EXHF   =         0.00000000
  -V(xc)+E(xc)   XCENC  =        33.62636337
  PAW double counting   =       569.03615206     -570.79889665
  entropy T*S    EENTRO =        -0.00000000
  eigenvalues    EBANDS =      -107.72662946
  atomic energy  EATOM  =       457.26981990
  Solvation  Ediel_sol  =         0.00000000
  ---------------------------------------------------
  free energy    TOTEN  =       -14.16510799 eV

  energy without entropy =      -14.16510799  energy(sigma->0) =      -14.16510799


--------------------------------------------------------------------------------------------------------




--------------------------------------- Iteration     15(   2)  ---------------------------------------


    POTLOK:  cpu time      0.0643: real time      0.0649
    SETDIJ:  cpu time      0.0904: real time      0.0911
     EDDAV:  cpu time      0.3167: real time      0.3198
       DOS:  cpu time      0.0006: real time      0.0006
    CHARGE:  cpu time      0.0640: real time      0.0652
    MIXING:  cpu time      0.0032: real time      0.0033
    --------------------------------------------
      LOOP:  cpu time      0.5392: real time      0.5449

 eigenvalue-minimisations  :   128
 total energy-change (2. order) : 0.7109757E-03  (-0.1232605E-01)
 number of electron       8.0000001 magnetization 
 augmentation part        0.6790385 magnetization 

 Broyden mixing:
  rms(total) = 0.32927E-01    rms(broyden)= 0.32782E-01
  rms(prec ) = 0.34161E-01
  weight for this iteration     100.00

 eigenvalues of (default mixing * dielectric matrix)
  average eigenvalue GAMMA=   1.0646
  1.0646

 Free energy of the ion-electron system (eV)
  ---------------------------------------------------
  alpha Z        PSCENC =         0.02803141
  Ewald energy   TEWEN  =       119.64659565
  -Hartree energ DENC   =      -513.91110826
  -exchange      EXHF   =         0.00000000
  -V(xc)+E(xc)   XCENC  =        33.55054572
  PAW double counting   =       562.89260236     -564.63691733
  entropy T*S    EENTRO =        -0.00000000
  eigenvalues    EBANDS =      -109.00396647
  atomic energy  EATOM  =       457.26981990
  Solvation  Ediel_sol  =         0.00000000
  ---------------------------------------------------
  free energy    TOTEN  =       -14.16439701 eV

  energy without entropy =      -14.16439701  energy(sigma->0) =      -14.16439701


--------------------------------------------------------------------------------------------------------




--------------------------------------- Iteration     15(   3)  ---------------------------------------


    POTLOK:  cpu time      0.0638: real time      0.0647
    SETDIJ:  cpu time      0.0901: real time      0.0907
     EDDAV:  cpu time      0.2364: real time      0.2389
       DOS:  cpu time      0.0006: real time      0.0006
    CHARGE:  cpu time      0.0638: real time      0.0649
    MIXING:  cpu time      0.0020: real time      0.0026
    --------------------------------------------
      LOOP:  cpu time      0.4566: real time      0.4624

 eigenvalue-minimisations  :    96
 total energy-change (2. order) : 0.7058534E-03  (-0.2506695E-03)
 number of electron       8.0000001 magnetization 
 augmentation part        0.6777872 magnetization 

 Broyden mixing:
  rms(total) = 0.17230E-01    rms(broyden)= 0.17218E-01
  rms(prec ) = 0.17803E-01
  weight for this iteration     100.00

 eigenvalues of (default mixing * dielectric matrix)
  average eigenvalue GAMMA=   1.5827
  0.9296  2.2358

 Free energy of the ion-electron system (eV)
  ---------------------------------------------------
  alpha Z        PSCENC =         0.02803141
  Ewald energy   TEWEN  =       119.64659565
  -Hartree energ DENC   =      -513.93431586
  -exchange      EXHF   =         0.00000000
  -V(xc)+E(xc)   XCENC  =        33.54993549
  PAW double counting   =       559.67023827     -561.40893136
  entropy T*S    EENTRO =        -0.00000000
  eigenvalues    EBANDS =      -108.98506467
  atomic energy  EATOM  =       457.26981990
  Solvation  Ediel_sol  =         0.00000000
  ---------------------------------------------------
  free energy    TOTEN  =       -14.16369116 eV

  energy without entropy =      -14.16369116  energy(sigma->0) =      -14.16369116


--------------------------------------------------------------------------------------------------------




--------------------------------------- Iteration     15(   4)  ---------------------------------------


    POTLOK:  cpu time      0.0638: real time      0.0644
    SETDIJ:  cpu time      0.0898: real time      0.0905
     EDDAV:  cpu time      0.2364: real time      0.2388
       DOS:  cpu time      0.0006: real time      0.0006
    CHARGE:  cpu time      0.0638: real time      0.0650
    MIXING:  cpu time      0.0028: real time      0.0028
    --------------------------------------------
      LOOP:  cpu time      0.4571: real time      0.4620

 eigenvalue-minimisations  :    96
 total energy-change (2. order) :-0.1156898E-02  (-0.1847582E-03)
 number of electron       8.0000001 magnetization 
 augmentation part        0.6776107 magnetization 

 Broyden mixing:
  rms(total) = 0.28400E-02    rms(broyden)= 0.28168E-02
  rms(prec ) = 0.30159E-02
  weight for this iteration     100.00

 eigenvalues of (default mixing * dielectric matrix)
  average eigenvalue GAMMA=   1.5180
  2.2049  0.9435  1.4057

 Free energy of the ion-electron system (eV)
  ---------------------------------------------------
  alpha Z        PSCENC =         0.02803141
  Ewald energy   TEWEN  =       119.64659565
  -Hartree energ DENC   =      -513.79360441
  -exchange      EXHF   =         0.00000000
  -V(xc)+E(xc)   XCENC  =        33.53990768
  PAW double counting   =       555.38462685     -557.11263468
  entropy T*S    EENTRO =        -0.00000000
  eigenvalues    EBANDS =      -109.12759047
  atomic energy  EATOM  =       457.26981990
  Solvation  Ediel_sol  =         0.00000000
  ---------------------------------------------------
  free energy    TOTEN  =       -14.16484805 eV

  energy without entropy =      -14.16484805  energy(sigma->0) =      -14.16484805


--------------------------------------------------------------------------------------------------------




--------------------------------------- Iteration     15(   5)  ---------------------------------------


    POTLOK:  cpu time      0.0634: real time      0.0644
    SETDIJ:  cpu time      0.0901: real time      0.0907
     EDDAV:  cpu time      0.1693: real time      0.1711
       DOS:  cpu time      0.0005: real time      0.0006
    CHARGE:  cpu time      0.0635: real time      0.0650
    MIXING:  cpu time      0.0030: real time      0.0030
    --------------------------------------------
      LOOP:  cpu time      0.3898: real time      0.3949

 eigenvalue-minimisations  :    64
 total energy-change (2. order) :-0.7794818E-04  (-0.1543619E-04)
 number of electron       8.0000001 magnetization 
 augmentation part        0.6778462 magnetization 

 Broyden mixing:
  rms(total) = 0.13343E-02    rms(broyden)= 0.13326E-02
  rms(prec ) = 0.14564E-02
  weight for this iteration     100.00

 eigenvalues of (default mixing * dielectric matrix)
  average eigenvalue GAMMA=   1.6289
  2.4336  0.9376  1.5722  1.5722

 Free energy of the ion-electron system (eV)
  ---------------------------------------------------
  alpha Z        PSCENC =         0.02803141
  Ewald energy   TEWEN  =       119.64659565
  -Hartree energ DENC   =      -513.76913480
  -exchange      EXHF   =         0.00000000
  -V(xc)+E(xc)   XCENC  =        33.53873879
  PAW double counting   =       554.92224926     -556.64850266
  entropy T*S    EENTRO =        -0.00000000
  eigenvalues    EBANDS =      -109.15272356
  atomic energy  EATOM  =       457.26981990
  Solvation  Ediel_sol  =         0.00000000
  ---------------------------------------------------
  free energy    TOTEN  =       -14.16492600 eV

  energy without entropy =      -14.16492600  energy(sigma->0) =      -14.16492600


--------------------------------------------------------------------------------------------------------




--------------------------------------- Iteration     15(   6)  ---------------------------------------


    POTLOK:  cpu time      0.0630: real time      0.0635
    SETDIJ:  cpu time      0.0901: real time      0.0907
     EDDAV:  cpu time      0.1692: real time      0.1711
       DOS:  cpu time      0.0006: real time      0.0006
    CHARGE:  cpu time      0.0645: real time      0.0657
    MIXING:  cpu time      0.0021: real time      0.0021
    --------------------------------------------
      LOOP:  cpu time      0.3895: real time      0.3937

 eigenvalue-minimisations  :    64
 total energy-change (2. order) :-0.5166848E-04  (-0.1312204E-05)
 number of electron       8.0000001 magnetization 
 augmentation part        0.6778235 magnetization 

 Broyden mixing:
  rms(total) = 0.26424E-03    rms(broyden)= 0.26336E-03
  rms(prec ) = 0.44516E-03
  weight for this iteration     100.00

 eigenvalues of (default mixing * dielectric matrix)
  average eigenvalue GAMMA=   1.5606
  2.5712  0.9395  1.0532  1.7836  1.4554

 Free energy of the ion-electron system (eV)
  ---------------------------------------------------
  alpha Z        PSCENC =         0.02803141
  Ewald energy   TEWEN  =       119.64659565
  -Hartree energ DENC   =      -513.75875690
  -exchange      EXHF   =         0.00000000
  -V(xc)+E(xc)   XCENC  =        33.53836926
  PAW double counting   =       554.58903051     -556.31510622
  entropy T*S    EENTRO =        -0.00000000
  eigenvalues    EBANDS =      -109.16296128
  atomic energy  EATOM  =       457.26981990
  Solvation  Ediel_sol  =         0.00000000
  ---------------------------------------------------
  free energy    TOTEN  =       -14.16497767 eV

  energy without entropy =      -14.16497767  energy(sigma->0) =      -14.16497767


--------------------------------------------------------------------------------------------------------




--------------------------------------- Iteration     15(   7)  ---------------------------------------


    POTLOK:  cpu time      0.0647: real time      0.0653
    SETDIJ:  cpu time      0.0899: real time      0.0905
     EDDAV:  cpu time      0.2372: real time      0.2395
       DOS:  cpu time      0.0006: real time      0.0006
    CHARGE:  cpu time      0.0643: real time      0.0655
    MIXING:  cpu time      0.0032: real time      0.0032
    --------------------------------------------
      LOOP:  cpu time      0.4599: real time      0.4646

 eigenvalue-minimisations  :    96
 total energy-change (2. order) :-0.2390874E-04  (-0.1731194E-06)
 number of electron       8.0000001 magnetization 
 augmentation part        0.6778265 magnetization 

 Broyden mixing:
  rms(total) = 0.16776E-03    rms(broyden)= 0.16756E-03
  rms(prec ) = 0.33227E-03
  weight for this iteration     100.00

 eigenvalues of (default mixing * dielectric matrix)
  average eigenvalue GAMMA=   1.6861
  2.5965  2.4838  0.9598  0.9809  1.5480  1.5480

 Free energy of the ion-electron system (eV)
  ---------------------------------------------------
  alpha Z        PSCENC =         0.02803141
  Ewald energy   TEWEN  =       119.64659565
  -Hartree energ DENC   =      -513.75059952
  -exchange      EXHF   =         0.00000000
  -V(xc)+E(xc)   XCENC  =        33.53807042
  PAW double counting   =       554.53799853     -556.26405660
  entropy T*S    EENTRO =        -0.00000000
  eigenvalues    EBANDS =      -109.17086137
  atomic energy  EATOM  =       457.26981990
  Solvation  Ediel_sol  =         0.00000000
  ---------------------------------------------------
  free energy    TOTEN  =       -14.16500158 eV

  energy without entropy =      -14.16500158  energy(sigma->0) =      -14.16500158


--------------------------------------------------------------------------------------------------------




--------------------------------------- Iteration     15(   8)  ---------------------------------------


    POTLOK:  cpu time      0.0629: real time      0.0640
    SETDIJ:  cpu time      0.0900: real time      0.0906
     EDDAV:  cpu time      0.1688: real time      0.1706
       DOS:  cpu time      0.0007: real time      0.0007
    CHARGE:  cpu time      0.0639: real time      0.0651
    MIXING:  cpu time      0.0031: real time      0.0031
    --------------------------------------------
      LOOP:  cpu time      0.3893: real time      0.3942

 eigenvalue-minimisations  :    64
 total energy-change (2. order) :-0.4392252E-04  (-0.5674207E-06)
 number of electron       8.0000001 magnetization 
 augmentation part        0.6778351 magnetization 

 Broyden mixing:
  rms(total) = 0.95265E-04    rms(broyden)= 0.95148E-04
  rms(prec ) = 0.18215E-03
  weight for this iteration     100.00

 eigenvalues of (default mixing * dielectric matrix)
  average eigenvalue GAMMA=   1.7411
  3.3213  2.5331  1.6261  1.6261  0.9349  0.9883  1.1582

 Free energy of the ion-electron system (eV)
  ---------------------------------------------------
  alpha Z        PSCENC =         0.02803141
  Ewald energy   TEWEN  =       119.64659565
  -Hartree energ DENC   =      -513.73661513
  -exchange      EXHF   =         0.00000000
  -V(xc)+E(xc)   XCENC  =        33.53764851
  PAW double counting   =       554.54032767     -556.26641572
  entropy T*S    EENTRO =        -0.00000000
  eigenvalues    EBANDS =      -109.18443780
  atomic energy  EATOM  =       457.26981990
  Solvation  Ediel_sol  =         0.00000000
  ---------------------------------------------------
  free energy    TOTEN  =       -14.16504550 eV

  energy without entropy =      -14.16504550  energy(sigma->0) =      -14.16504550


--------------------------------------------------------------------------------------------------------




--------------------------------------- Iteration     15(   9)  ---------------------------------------


    POTLOK:  cpu time      0.0624: real time      0.0635
    SETDIJ:  cpu time      0.0904: real time      0.0910
     EDDAV:  cpu time      0.2356: real time      0.2381
       DOS:  cpu time      0.0005: real time      0.0006
    CHARGE:  cpu time      0.0643: real time      0.0655
    MIXING:  cpu time      0.0032: real time      0.0032
    --------------------------------------------
      LOOP:  cpu time      0.4563: real time      0.4619

 eigenvalue-minimisations  :    96
 total energy-change (2. order) :-0.1921929E-04  (-0.1781091E-06)
 number of electron       8.0000001 magnetization 
 augmentation part        0.6778211 magnetization 

 Broyden mixing:
  rms(total) = 0.64354E-04    rms(broyden)= 0.64133E-04
  rms(prec ) = 0.11285E-03
  weight for this iteration     100.00

 eigenvalues of (default mixing * dielectric matrix)
  average eigenvalue GAMMA=   2.0296
  5.3164  2.5910  2.1544  1.6047  1.6047  0.9197  1.0232  1.0232

 Free energy of the ion-electron system (eV)
  ---------------------------------------------------
  alpha Z        PSCENC =         0.02803141
  Ewald energy   TEWEN  =       119.64659565
  -Hartree energ DENC   =      -513.73228674
  -exchange      EXHF   =         0.00000000
  -V(xc)+E(xc)   XCENC  =        33.53755695
  PAW double counting   =       554.54885815     -556.27496141
  entropy T*S    EENTRO =        -0.00000000
  eigenvalues    EBANDS =      -109.18867863
  atomic energy  EATOM  =       457.26981990
  Solvation  Ediel_sol  =         0.00000000
  ---------------------------------------------------
  free energy    TOTEN  =       -14.16506472 eV

  energy without entropy =      -14.16506472  energy(sigma->0) =      -14.16506472


--------------------------------------------------------------------------------------------------------




--------------------------------------- Iteration     15(  10)  ---------------------------------------


    POTLOK:  cpu time      0.0646: real time      0.0651
    SETDIJ:  cpu time      0.0902: real time      0.0909
     EDDAV:  cpu time      0.2405: real time      0.2429
       DOS:  cpu time      0.0007: real time      0.0007
    CHARGE:  cpu time      0.0643: real time      0.0655
    MIXING:  cpu time      0.0029: real time      0.0030
    --------------------------------------------
      LOOP:  cpu time      0.4632: real time      0.4679

 eigenvalue-minimisations  :    96
 total energy-change (2. order) :-0.1595385E-04  (-0.1439366E-06)
 number of electron       8.0000001 magnetization 
 augmentation part        0.6778247 magnetization 

 Broyden mixing:
  rms(total) = 0.30419E-04    rms(broyden)= 0.30155E-04
  rms(prec ) = 0.54087E-04
  weight for this iteration     100.00

 eigenvalues of (default mixing * dielectric matrix)
  average eigenvalue GAMMA=   2.0799
  6.0264  2.7428  2.4380  1.6570  1.6570  1.2450  0.9201  0.9995  1.0328

 Free energy of the ion-electron system (eV)
  ---------------------------------------------------
  alpha Z        PSCENC =         0.02803141
  Ewald energy   TEWEN  =       119.64659565
  -Hartree energ DENC   =      -513.72829949
  -exchange      EXHF   =         0.00000000
  -V(xc)+E(xc)   XCENC  =        33.53744329
  PAW double counting   =       554.55456771     -556.28063601
  entropy T*S    EENTRO =        -0.00000000
  eigenvalues    EBANDS =      -109.19260314
  atomic energy  EATOM  =       457.26981990
  Solvation  Ediel_sol  =         0.00000000
  ---------------------------------------------------
  free energy    TOTEN  =       -14.16508068 eV

  energy without entropy =      -14.16508068  energy(sigma->0) =      -14.16508068


--------------------------------------------------------------------------------------------------------




--------------------------------------- Iteration     15(  11)  ---------------------------------------


    POTLOK:  cpu time      0.0631: real time      0.0643
    SETDIJ:  cpu time      0.0904: real time      0.0910
     EDDAV:  cpu time      0.2364: real time      0.2388
       DOS:  cpu time      0.0006: real time      0.0006
    CHARGE:  cpu time      0.0643: real time      0.0655
    MIXING:  cpu time      0.0026: real time      0.0027
    --------------------------------------------
      LOOP:  cpu time      0.4573: real time      0.4628

 eigenvalue-minimisations  :    96
 total energy-change (2. order) :-0.7419741E-05  (-0.1649660E-07)
 number of electron       8.0000001 magnetization 
 augmentation part        0.6778258 magnetization 

 Broyden mixing:
  rms(total) = 0.17206E-04    rms(broyden)= 0.16810E-04
  rms(prec ) = 0.29774E-04
  weight for this iteration     100.00

 eigenvalues of (default mixing * dielectric matrix)
  average eigenvalue GAMMA=   2.2003
  6.9372  3.2565  2.5720  2.0252  1.6175  1.6175  1.1000  1.0085  0.9596  0.9085

 Free energy of the ion-electron system (eV)
  ---------------------------------------------------
  alpha Z        PSCENC =         0.02803141
  Ewald energy   TEWEN  =       119.64659565
  -Hartree energ DENC   =      -513.72900791
  -exchange      EXHF   =         0.00000000
  -V(xc)+E(xc)   XCENC  =        33.53747602
  PAW double counting   =       554.55312824     -556.27919534
  entropy T*S    EENTRO =        -0.00000000
  eigenvalues    EBANDS =      -109.19193608
  atomic energy  EATOM  =       457.26981990
  Solvation  Ediel_sol  =         0.00000000
  ---------------------------------------------------
  free energy    TOTEN  =       -14.16508809 eV

  energy without entropy =      -14.16508809  energy(sigma->0) =      -14.16508809


--------------------------------------------------------------------------------------------------------




--------------------------------------- Iteration     15(  12)  ---------------------------------------


    POTLOK:  cpu time      0.0642: real time      0.0651
    SETDIJ:  cpu time      0.0898: real time      0.0904
     EDDAV:  cpu time      0.2386: real time      0.2411
       DOS:  cpu time      0.0006: real time      0.0006
    CHARGE:  cpu time      0.0642: real time      0.0654
    MIXING:  cpu time      0.0026: real time      0.0027
    --------------------------------------------
      LOOP:  cpu time      0.4600: real time      0.4652

 eigenvalue-minimisations  :    96
 total energy-change (2. order) :-0.3561760E-05  (-0.6192714E-08)
 number of electron       8.0000001 magnetization 
 augmentation part        0.6778252 magnetization 

 Broyden mixing:
  rms(total) = 0.12320E-04    rms(broyden)= 0.11772E-04
  rms(prec ) = 0.18082E-04
  weight for this iteration     100.00

 eigenvalues of (default mixing * dielectric matrix)
  average eigenvalue GAMMA=   2.3729
  7.8865  4.2403  2.5747  2.4644  1.7821  1.7821  1.3846  1.1026  0.9168  0.9839
  0.9839

 Free energy of the ion-electron system (eV)
  ---------------------------------------------------
  alpha Z        PSCENC =         0.02803141
  Ewald energy   TEWEN  =       119.64659565
  -Hartree energ DENC   =      -513.72939061
  -exchange      EXHF   =         0.00000000
  -V(xc)+E(xc)   XCENC  =        33.53749928
  PAW double counting   =       554.55058544     -556.27665919
  entropy T*S    EENTRO =        -0.00000000
  eigenvalues    EBANDS =      -109.19157353
  atomic energy  EATOM  =       457.26981990
  Solvation  Ediel_sol  =         0.00000000
  ---------------------------------------------------
  free energy    TOTEN  =       -14.16509166 eV

  energy without entropy =      -14.16509166  energy(sigma->0) =      -14.16509166


--------------------------------------------------------------------------------------------------------




--------------------------------------- Iteration     15(  13)  ---------------------------------------


    POTLOK:  cpu time      0.0646: real time      0.0651
    SETDIJ:  cpu time      0.0903: real time      0.0911
     EDDAV:  cpu time      0.2362: real time      0.2386
       DOS:  cpu time      0.0007: real time      0.0008
    CHARGE:  cpu time      0.0636: real time      0.0648
    MIXING:  cpu time      0.0029: real time      0.0029
    --------------------------------------------
      LOOP:  cpu time      0.4583: real time      0.4634

 eigenvalue-minimisations  :    96
 total energy-change (2. order) :-0.2285626E-05  (-0.2587305E-08)
 number of electron       8.0000001 magnetization 
 augmentation part        0.6778254 magnetization 

 Broyden mixing:
  rms(total) = 0.64165E-05    rms(broyden)= 0.52942E-05
  rms(prec ) = 0.85213E-05
  weight for this iteration     100.00
  WARNING: grid for Broyden might be to small

 eigenvalues of (default mixing * dielectric matrix)
  average eigenvalue GAMMA=   2.3917
  8.2340  4.7614  2.8149  2.5210  1.9474  1.6272  1.6272  1.2261  0.9226  1.0249
  0.9967  0.9967

 Free energy of the ion-electron system (eV)
  ---------------------------------------------------
  alpha Z        PSCENC =         0.02803141
  Ewald energy   TEWEN  =       119.64659565
  -Hartree energ DENC   =      -513.72955314
  -exchange      EXHF   =         0.00000000
  -V(xc)+E(xc)   XCENC  =        33.53750669
  PAW double counting   =       554.55057103     -556.27664427
  entropy T*S    EENTRO =        -0.00000000
  eigenvalues    EBANDS =      -109.19142122
  atomic energy  EATOM  =       457.26981990
  Solvation  Ediel_sol  =         0.00000000
  ---------------------------------------------------
  free energy    TOTEN  =       -14.16509394 eV

  energy without entropy =      -14.16509394  energy(sigma->0) =      -14.16509394


--------------------------------------------------------------------------------------------------------




--------------------------------------- Iteration     15(  14)  ---------------------------------------


    POTLOK:  cpu time      0.0639: real time      0.0644
    SETDIJ:  cpu time      0.0901: real time      0.0907
     EDDAV:  cpu time      0.2355: real time      0.2379
       DOS:  cpu time      0.0006: real time      0.0006
    CHARGE:  cpu time      0.0637: real time      0.0649
    MIXING:  cpu time      0.0038: real time      0.0039
    --------------------------------------------
      LOOP:  cpu time      0.4576: real time      0.4624

 eigenvalue-minimisations  :    96
 total energy-change (2. order) :-0.8764687E-06  (-0.4382290E-09)
 number of electron       8.0000001 magnetization 
 augmentation part        0.6778249 magnetization 

 Broyden mixing:
  rms(total) = 0.50309E-05    rms(broyden)= 0.34898E-05
  rms(prec ) = 0.51593E-05
  weight for this iteration     100.00
  WARNING: grid for Broyden might be to small

 eigenvalues of (default mixing * dielectric matrix)
  average eigenvalue GAMMA=   2.5309
  8.9333  5.4234  3.4309  2.5825  2.3976  1.8095  1.8095  1.4714  1.1355  0.9234
  1.0078  1.0078  0.9685

 Free energy of the ion-electron system (eV)
  ---------------------------------------------------
  alpha Z        PSCENC =         0.02803141
  Ewald energy   TEWEN  =       119.64659565
  -Hartree energ DENC   =      -513.72955921
  -exchange      EXHF   =         0.00000000
  -V(xc)+E(xc)   XCENC  =        33.53750618
  PAW double counting   =       554.55077641     -556.27685104
  entropy T*S    EENTRO =        -0.00000000
  eigenvalues    EBANDS =      -109.19141413
  atomic energy  EATOM  =       457.26981990
  Solvation  Ediel_sol  =         0.00000000
  ---------------------------------------------------
  free energy    TOTEN  =       -14.16509482 eV

  energy without entropy =      -14.16509482  energy(sigma->0) =      -14.16509482


--------------------------------------------------------------------------------------------------------




--------------------------------------- Iteration     15(  15)  ---------------------------------------


    POTLOK:  cpu time      0.0650: real time      0.0659
    SETDIJ:  cpu time      0.0900: real time      0.0907
     EDDAV:  cpu time      0.4348: real time      0.4378
       DOS:  cpu time      0.0005: real time      0.0006
    CHARGE:  cpu time      0.0637: real time      0.0649
    MIXING:  cpu time      0.0029: real time      0.0029
    --------------------------------------------
      LOOP:  cpu time      0.6570: real time      0.6628

 eigenvalue-minimisations  :    64
 total energy-change (2. order) :-0.5908070E-06  (-0.2786731E-09)
 number of electron       8.0000001 magnetization 
 augmentation part        0.6778250 magnetization 

 Broyden mixing:
  rms(total) = 0.40714E-05    rms(broyden)= 0.18619E-05
  rms(prec ) = 0.24307E-05
  weight for this iteration     100.00
  WARNING: grid for Broyden might be to small

 eigenvalues of (default mixing * dielectric matrix)
  average eigenvalue GAMMA=   2.5687
  9.1581  5.8106  3.9758  2.6827  2.5099  1.8133  1.8133  1.7436  1.4316  0.9211
  0.9762  1.0165  1.0546  1.0546

 Free energy of the ion-electron system (eV)
  ---------------------------------------------------
  alpha Z        PSCENC =         0.02803141
  Ewald energy   TEWEN  =       119.64659565
  -Hartree energ DENC   =      -513.72950592
  -exchange      EXHF   =         0.00000000
  -V(xc)+E(xc)   XCENC  =        33.53750276
  PAW double counting   =       554.55108676     -556.27716142
  entropy T*S    EENTRO =        -0.00000000
  eigenvalues    EBANDS =      -109.19146455
  atomic energy  EATOM  =       457.26981990
  Solvation  Ediel_sol  =         0.00000000
  ---------------------------------------------------
  free energy    TOTEN  =       -14.16509541 eV

  energy without entropy =      -14.16509541  energy(sigma->0) =      -14.16509541


--------------------------------------------------------------------------------------------------------




--------------------------------------- Iteration     15(  16)  ---------------------------------------


    POTLOK:  cpu time      0.0661: real time      0.0670
    SETDIJ:  cpu time      0.0903: real time      0.0910
     EDDAV:  cpu time      0.2401: real time      0.2426
       DOS:  cpu time      0.0006: real time      0.0006
    CHARGE:  cpu time      0.0637: real time      0.0649
    MIXING:  cpu time      0.0031: real time      0.0031
    --------------------------------------------
      LOOP:  cpu time      0.4639: real time      0.4692

 eigenvalue-minimisations  :    96
 total energy-change (2. order) :-0.1965893E-06  (-0.5407763E-10)
 number of electron       8.0000001 magnetization 
 augmentation part        0.6778250 magnetization 

 Broyden mixing:
  rms(total) = 0.36712E-05    rms(broyden)= 0.60770E-06
  rms(prec ) = 0.96755E-06
  weight for this iteration     100.00
  WARNING: grid for Broyden might be to small

 eigenvalues of (default mixing * dielectric matrix)
  average eigenvalue GAMMA=   2.6076
  9.3904  6.5661  4.2499  2.9645  2.5388  2.3110  1.8053  1.8053  1.4416  1.1425
  0.9199  0.9893  0.9893  0.9998  0.9998

 Free energy of the ion-electron system (eV)
  ---------------------------------------------------
  alpha Z        PSCENC =         0.02803141
  Ewald energy   TEWEN  =       119.64659565
  -Hartree energ DENC   =      -513.72947054
  -exchange      EXHF   =         0.00000000
  -V(xc)+E(xc)   XCENC  =        33.53750163
  PAW double counting   =       554.55110325     -556.27717679
  entropy T*S    EENTRO =        -0.00000000
  eigenvalues    EBANDS =      -109.19150013
  atomic energy  EATOM  =       457.26981990
  Solvation  Ediel_sol  =         0.00000000
  ---------------------------------------------------
  free energy    TOTEN  =       -14.16509561 eV

  energy without entropy =      -14.16509561  energy(sigma->0) =      -14.16509561


--------------------------------------------------------------------------------------------------------




--------------------------------------- Iteration     15(  17)  ---------------------------------------


    POTLOK:  cpu time      0.0675: real time      0.0681
    SETDIJ:  cpu time      0.0907: real time      0.0913
     EDDAV:  cpu time      0.3143: real time      0.3174
       DOS:  cpu time      0.0007: real time      0.0007
    CHARGE:  cpu time      0.0634: real time      0.0646
    MIXING:  cpu time      0.0034: real time      0.0034
    --------------------------------------------
      LOOP:  cpu time      0.5399: real time      0.5455

 eigenvalue-minimisations  :   128
 total energy-change (2. order) :-0.8128757E-07  (-0.1834266E-10)
 number of electron       8.0000001 magnetization 
 augmentation part        0.6778251 magnetization 

 Broyden mixing:
  rms(total) = 0.36782E-05    rms(broyden)= 0.64894E-06
  rms(prec ) = 0.77900E-06
  weight for this iteration     100.00
  WARNING: grid for Broyden might be to small

 eigenvalues of (default mixing * dielectric matrix)
  average eigenvalue GAMMA=   2.6852
  9.6633  6.9062  4.7597  3.2082  2.7802  2.5158  2.1010  1.7977  1.7977  1.4191
  1.1085  0.9215  0.9774  0.9774  1.0146  1.0146

 Free energy of the ion-electron system (eV)
  ---------------------------------------------------
  alpha Z        PSCENC =         0.02803141
  Ewald energy   TEWEN  =       119.64659565
  -Hartree energ DENC   =      -513.72947529
  -exchange      EXHF   =         0.00000000
  -V(xc)+E(xc)   XCENC  =        33.53750179
  PAW double counting   =       554.55099733     -556.27707072
  entropy T*S    EENTRO =        -0.00000000
  eigenvalues    EBANDS =      -109.19149576
  atomic energy  EATOM  =       457.26981990
  Solvation  Ediel_sol  =         0.00000000
  ---------------------------------------------------
  free energy    TOTEN  =       -14.16509569 eV

  energy without entropy =      -14.16509569  energy(sigma->0) =      -14.16509569


--------------------------------------------------------------------------------------------------------




--------------------------------------- Iteration     15(  18)  ---------------------------------------


    POTLOK:  cpu time      0.0663: real time      0.0668
    SETDIJ:  cpu time      0.0900: real time      0.0907
     EDDAV:  cpu time      0.1733: real time      0.1751
       DOS:  cpu time      0.0007: real time      0.0007
    CHARGE:  cpu time      0.0636: real time      0.0648
    MIXING:  cpu time      0.0035: real time      0.0035
    --------------------------------------------
      LOOP:  cpu time      0.3973: real time      0.4016

 eigenvalue-minimisations  :    64
 total energy-change (2. order) :-0.4478409E-07  (-0.1583089E-10)
 number of electron       8.0000001 magnetization 
 augmentation part        0.6778250 magnetization 

 Broyden mixing:
  rms(total) = 0.36298E-05    rms(broyden)= 0.26008E-06
  rms(prec ) = 0.31790E-06
  weight for this iteration     100.00
  WARNING: grid for Broyden might be to small

 eigenvalues of (default mixing * dielectric matrix)
  average eigenvalue GAMMA=   2.6403
  9.7643  7.0719  4.9657  3.5404  2.6889  2.5023  2.1876  1.8014  1.8014  1.4462
  1.1024  1.0874  1.0370  1.0370  0.9228  0.9642  0.9642

 Free energy of the ion-electron system (eV)
  ---------------------------------------------------
  alpha Z        PSCENC =         0.02803141
  Ewald energy   TEWEN  =       119.64659565
  -Hartree energ DENC   =      -513.72946668
  -exchange      EXHF   =         0.00000000
  -V(xc)+E(xc)   XCENC  =        33.53750144
  PAW double counting   =       554.55095152     -556.27702579
  entropy T*S    EENTRO =        -0.00000000
  eigenvalues    EBANDS =      -109.19150318
  atomic energy  EATOM  =       457.26981990
  Solvation  Ediel_sol  =         0.00000000
  ---------------------------------------------------
  free energy    TOTEN  =       -14.16509573 eV

  energy without entropy =      -14.16509573  energy(sigma->0) =      -14.16509573


--------------------------------------------------------------------------------------------------------




--------------------------------------- Iteration     15(  19)  ---------------------------------------


    POTLOK:  cpu time      0.0651: real time      0.0661
    SETDIJ:  cpu time      0.0907: real time      0.0914
     EDDAV:  cpu time      0.3136: real time      0.3167
       DOS:  cpu time      0.0006: real time      0.0006
    --------------------------------------------
      LOOP:  cpu time      0.4701: real time      0.4749

 eigenvalue-minimisations  :   128
 total energy-change (2. order) :-0.6492201E-08  (-0.1052314E-10)
 number of electron       8.0000001 magnetization 
 augmentation part        0.6778250 magnetization 

 Free energy of the ion-electron system (eV)
  ---------------------------------------------------
  alpha Z        PSCENC =         0.02803141
  Ewald energy   TEWEN  =       119.64659565
  -Hartree energ DENC   =      -513.72946762
  -exchange      EXHF   =         0.00000000
  -V(xc)+E(xc)   XCENC  =        33.53750142
  PAW double counting   =       554.55095943     -556.27703342
  entropy T*S    EENTRO =        -0.00000000
  eigenvalues    EBANDS =      -109.19150250
  atomic energy  EATOM  =       457.26981990
  Solvation  Ediel_sol  =         0.00000000
  ---------------------------------------------------
  free energy    TOTEN  =       -14.16509574 eV

  energy without entropy =      -14.16509574  energy(sigma->0) =      -14.16509574


--------------------------------------------------------------------------------------------------------




 average (electrostatic) potential at core
  the test charge radii are     0.5201  0.7215
  (the norm of the test charge is              1.0000)
       1 -44.7942       2 -44.6295       3 -80.7554



 E-fermi :  -7.0937     XC(G=0):  -0.1049     alpha+bet : -0.0163

 val. band max:       -7.1567982828   @ k =   0.0000   0.0000   0.0000
 cond. band min:      -1.1046148270   @ k =   0.0000   0.0000   0.0000
 fundamental gap:      6.0521834558
 Fermi energy:        -7.0937393379

 k-point     1 :       0.0000    0.0000    0.0000
  band No.  band energies     occupation 
      1     -25.2444      2.00000
      2     -12.8658      2.00000
      3      -9.3288      2.00000
      4      -7.1568      2.00000
      5      -1.1046      0.00000
      6       0.0105      0.00000
      7       0.1897      0.00000
      8       0.2963      0.00000
      9       0.3106      0.00000
     10       0.3415      0.00000
     11       0.3487      0.00000
     12       0.4602      0.00000
     13       0.4924      0.00000
     14       0.6010      0.00000
     15       0.6216      0.00000
     16       0.7070      0.00000
     17       0.7085      0.00000
     18       0.7134      0.00000
     19       0.7171      0.00000
     20       0.7207      0.00000
     21       0.7296      0.00000
     22       0.7319      0.00000
     23       0.7371      0.00000
     24       0.9310      0.00000
     25       0.9364      0.00000
     26       1.0203      0.00000
     27       1.0342      0.00000
     28       1.0816      0.00000
     29       1.0846      0.00000
     30       1.0880      0.00000
     31       1.1032      0.00000
     32       1.2465      0.00000


--------------------------------------------------------------------------------------------------------


 soft charge-density along one line, spin component           1
         0         1         2         3         4         5         6         7         8         9
 total charge-density along one line

 pseudopotential strength for first ion, spin component:           1
 -2.379  -4.109  -0.022   0.000   0.003
 -4.109  -7.011  -0.042   0.000   0.006
 -0.022  -0.042  -0.284  -0.000  -0.006
  0.000   0.000  -0.000  -0.327  -0.000
  0.003   0.006  -0.006  -0.000  -0.325
 total augmentation occupancy for first ion, spin component:           1
  3.952  -0.864   0.696  -0.000  -0.117
 -0.864   0.236  -0.149   0.000   0.029
  0.696  -0.149   0.123  -0.000  -0.019
 -0.000   0.000  -0.000   0.038  -0.000
 -0.117   0.029  -0.019  -0.000   0.028


------------------------ aborting loop because EDIFF is reached ----------------------------------------


    CHARGE:  cpu time      0.0641: real time      0.0649
    FORLOC:  cpu time      0.0020: real time      0.0021
    FORNL :  cpu time      0.2447: real time      0.2475
    STRESS:  cpu time      0.9648: real time      0.9748
    FORCOR:  cpu time      0.0555: real time      0.0559
    FORHAR:  cpu time      0.0143: real time      0.0145
    MIXING:  cpu time      0.0027: real time      0.0027
    OFIELD:  cpu time      0.0000: real time      0.0000

 ---------------------------------------------------------------------------------------------

         DFTD3 V3.0 Rev 1        
 Edisp (eV)   -0.00136

 E6    (eV) :    -0.0013
 E8    (eV) :    -0.0001
 % E8        :  5.26
    FORVDW:  cpu time      0.0080: real time      0.0081

  FORCE on cell =-STRESS in cart. coord.  units (eV):
  Direction    XX          YY          ZZ          XY          YZ          ZX
  --------------------------------------------------------------------------------------
  Alpha Z     0.02803     0.02803     0.02803
  Ewald      57.04175    84.42183   -21.81703    19.53185    -0.00009     0.00018
  Hartree   174.63430   179.07463   160.02054     3.45787    -0.00002     0.00004
  E(xc)     -36.22153   -36.09564   -36.68667     0.09695    -0.00000     0.00000
  Local    -317.61405  -341.45183  -247.95837   -17.57946     0.00008    -0.00016
  n-local   -30.35345   -29.97592   -30.66760     0.44529    -0.00000     0.00000
  augment     6.39573     5.91483     8.05063    -0.35903     0.00000    -0.00000
  Kinetic   144.64078   137.19958   168.20003    -5.76182     0.00002    -0.00006
  Fock        0.00000     0.00000     0.00000     0.00000     0.00000     0.00000
  vdW         0.00271     0.00802    -0.00000     0.00417     0.00000     0.00000
  -------------------------------------------------------------------------------------
  Total      -1.44573    -0.87646    -0.83045    -0.16418    -0.00000    -0.00000
  in kB      -0.28954    -0.17553    -0.16632    -0.03288    -0.00000    -0.00000
  external pressure =       -0.21 kB  Pullay stress =        0.00 kB


 VOLUME and BASIS-vectors are now :
 -----------------------------------------------------------------------------
  energy-cutoff  :      400.00
  volume of cell :     8000.00
      direct lattice vectors                 reciprocal lattice vectors
    20.000000000  0.000000000  0.000000000     0.050000000  0.000000000  0.000000000
     0.000000000 20.000000000  0.000000000     0.000000000  0.050000000  0.000000000
     0.000000000  0.000000000 20.000000000     0.000000000  0.000000000  0.050000000

  length of vectors
    20.000000000 20.000000000 20.000000000     0.050000000  0.050000000  0.050000000


 FORCES acting on ions
    electron-ion (+dipol)            ewald-force                    non-local-force                 convergence-correction
 -----------------------------------------------------------------------------------------------
   -.124E+02 0.864E+02 -.148E-03   0.135E+02 -.944E+02 0.161E-03   -.122E+01 0.806E+01 -.130E-04   0.190E-07 -.452E-06 0.259E-08
   -.775E+02 -.368E+02 -.157E-03   0.837E+02 0.398E+02 0.170E-03   -.699E+01 -.326E+01 -.151E-04   0.193E-06 0.200E-06 0.255E-08
   0.549E+02 -.308E+02 0.187E-03   -.972E+02 0.546E+02 -.332E-03   0.432E+02 -.237E+02 0.146E-03   0.198E-05 0.217E-05 0.771E-07
 -----------------------------------------------------------------------------------------------
   -.350E+02 0.189E+02 -.118E-03   0.000E+00 0.000E+00 0.401E-17   0.350E+02 -.189E+02 0.118E-03   0.219E-05 0.192E-05 0.822E-07


 POSITION                                       TOTAL-FORCE (eV/Angst)
 -----------------------------------------------------------------------------------
      9.80755      9.62347     10.00000        -0.105415      0.090536      0.000000
     10.54234     10.97263     10.00000        -0.761268     -0.232086     -0.000002
      9.63011     10.58390     10.00000         0.866683      0.141550      0.000002
 -----------------------------------------------------------------------------------
    total drift:                               -0.007494      0.005150      0.000000


--------------------------------------------------------------------------------------------------------



  FREE ENERGIE OF THE ION-ELECTRON SYSTEM (eV)
  ---------------------------------------------------
  free  energy   TOTEN  =       -14.16645134 eV

  energy  without entropy=      -14.16645134  energy(sigma->0) =      -14.16645134

 d Force = 0.1888861E-02[-0.347E-01, 0.384E-01]  d Energy = 0.7432270E-03 0.115E-02
 d Force = 0.3934752E+01[ 0.389E+01, 0.398E+01]  d Ewald  = 0.3933769E+01 0.983E-03


--------------------------------------------------------------------------------------------------------


    POTLOK:  cpu time      0.1573: real time      0.1586


--------------------------------------------------------------------------------------------------------


 Finite differences progress:
  Degree of freedom:   7/  9
  Displacement:        2/  2
  Total:              14/ 18
    WAVPRE:  cpu time      0.0096: real time      0.0111
    FEWALD:  cpu time      0.0003: real time      0.0003
    ORTHCH:  cpu time      0.0146: real time      0.0147
     LOOP+:  cpu time     10.3839: real time     10.5004


--------------------------------------- Ionic step       16  -------------------------------------------




--------------------------------------- Iteration     16(   1)  ---------------------------------------


    POTLOK:  cpu time      0.0634: real time      0.0648
    SETDIJ:  cpu time      0.0899: real time      0.0906
     EDDAV:  cpu time      0.1682: real time      0.1700
       DOS:  cpu time      0.0006: real time      0.0006
    CHARGE:  cpu time      0.0643: real time      0.0655
    MIXING:  cpu time      0.0030: real time      0.0031
    --------------------------------------------
      LOOP:  cpu time      0.3894: real time      0.3946

 eigenvalue-minimisations  :    64
 total energy-change (2. order) : 0.2505264E-02  (-0.4550780E+00)
 number of electron       8.0000002 magnetization 
 augmentation part        0.6816190 magnetization 

 Broyden mixing:
  rms(total) = 0.44789E-01    rms(broyden)= 0.43616E-01
  rms(prec ) = 0.45726E-01
  weight for this iteration     100.00

 Free energy of the ion-electron system (eV)
  ---------------------------------------------------
  alpha Z        PSCENC =         0.02803141
  Ewald energy   TEWEN  =       120.55640573
  -Hartree energ DENC   =      -514.07850944
  -exchange      EXHF   =         0.00000000
  -V(xc)+E(xc)   XCENC  =        33.55183130
  PAW double counting   =       554.55098945     -556.27706322
  entropy T*S    EENTRO =        -0.00000000
  eigenvalues    EBANDS =      -109.76409560
  atomic energy  EATOM  =       457.26981990
  Solvation  Ediel_sol  =         0.00000000
  ---------------------------------------------------
  free energy    TOTEN  =       -14.16259047 eV

  energy without entropy =      -14.16259047  energy(sigma->0) =      -14.16259047


--------------------------------------------------------------------------------------------------------




--------------------------------------- Iteration     16(   2)  ---------------------------------------


    POTLOK:  cpu time      0.0649: real time      0.0661
    SETDIJ:  cpu time      0.0904: real time      0.0910
     EDDAV:  cpu time      0.3677: real time      0.3709
       DOS:  cpu time      0.0007: real time      0.0007
    CHARGE:  cpu time      0.0639: real time      0.0652
    MIXING:  cpu time      0.0038: real time      0.0039
    --------------------------------------------
      LOOP:  cpu time      0.5913: real time      0.5977

 eigenvalue-minimisations  :   128
 total energy-change (2. order) : 0.5838596E-03  (-0.4271578E-02)
 number of electron       8.0000002 magnetization 
 augmentation part        0.6808107 magnetization 

 Broyden mixing:
  rms(total) = 0.23891E-01    rms(broyden)= 0.23783E-01
  rms(prec ) = 0.24814E-01
  weight for this iteration     100.00

 eigenvalues of (default mixing * dielectric matrix)
  average eigenvalue GAMMA=   1.5646
  1.5646

 Free energy of the ion-electron system (eV)
  ---------------------------------------------------
  alpha Z        PSCENC =         0.02803141
  Ewald energy   TEWEN  =       120.55640573
  -Hartree energ DENC   =      -514.36423779
  -exchange      EXHF   =         0.00000000
  -V(xc)+E(xc)   XCENC  =        33.56911024
  PAW double counting   =       555.84954909     -557.57889179
  entropy T*S    EENTRO =        -0.00000000
  eigenvalues    EBANDS =      -109.49179340
  atomic energy  EATOM  =       457.26981990
  Solvation  Ediel_sol  =         0.00000000
  ---------------------------------------------------
  free energy    TOTEN  =       -14.16200661 eV

  energy without entropy =      -14.16200661  energy(sigma->0) =      -14.16200661


--------------------------------------------------------------------------------------------------------




--------------------------------------- Iteration     16(   3)  ---------------------------------------


    POTLOK:  cpu time      0.0638: real time      0.0644
    SETDIJ:  cpu time      0.0937: real time      0.0944
     EDDAV:  cpu time      0.2365: real time      0.2389
       DOS:  cpu time      0.0007: real time      0.0007
    CHARGE:  cpu time      0.0643: real time      0.0656
    MIXING:  cpu time      0.0030: real time      0.0036
    --------------------------------------------
      LOOP:  cpu time      0.4621: real time      0.4677

 eigenvalue-minimisations  :    96
 total energy-change (2. order) :-0.3465494E-03  (-0.3199515E-03)
 number of electron       8.0000002 magnetization 
 augmentation part        0.6803716 magnetization 

 Broyden mixing:
  rms(total) = 0.64947E-02    rms(broyden)= 0.64515E-02
  rms(prec ) = 0.66335E-02
  weight for this iteration     100.00

 eigenvalues of (default mixing * dielectric matrix)
  average eigenvalue GAMMA=   1.5206
  1.0653  1.9758

 Free energy of the ion-electron system (eV)
  ---------------------------------------------------
  alpha Z        PSCENC =         0.02803141
  Ewald energy   TEWEN  =       120.55640573
  -Hartree energ DENC   =      -514.47292407
  -exchange      EXHF   =         0.00000000
  -V(xc)+E(xc)   XCENC  =        33.57505774
  PAW double counting   =       557.14745343     -558.88028050
  entropy T*S    EENTRO =        -0.00000000
  eigenvalues    EBANDS =      -109.38591681
  atomic energy  EATOM  =       457.26981990
  Solvation  Ediel_sol  =         0.00000000
  ---------------------------------------------------
  free energy    TOTEN  =       -14.16235316 eV

  energy without entropy =      -14.16235316  energy(sigma->0) =      -14.16235316


--------------------------------------------------------------------------------------------------------




--------------------------------------- Iteration     16(   4)  ---------------------------------------


    POTLOK:  cpu time      0.0636: real time      0.0641
    SETDIJ:  cpu time      0.0907: real time      0.0913
     EDDAV:  cpu time      0.3201: real time      0.3233
       DOS:  cpu time      0.0006: real time      0.0006
    CHARGE:  cpu time      0.0640: real time      0.0654
    MIXING:  cpu time      0.0030: real time      0.0030
    --------------------------------------------
      LOOP:  cpu time      0.5419: real time      0.5477

 eigenvalue-minimisations  :   128
 total energy-change (2. order) :-0.3813965E-03  (-0.4234138E-04)
 number of electron       8.0000002 magnetization 
 augmentation part        0.6805940 magnetization 

 Broyden mixing:
  rms(total) = 0.21999E-02    rms(broyden)= 0.21876E-02
  rms(prec ) = 0.22888E-02
  weight for this iteration     100.00

 eigenvalues of (default mixing * dielectric matrix)
  average eigenvalue GAMMA=   1.5646
  1.2194  1.2874  2.1870

 Free energy of the ion-electron system (eV)
  ---------------------------------------------------
  alpha Z        PSCENC =         0.02803141
  Ewald energy   TEWEN  =       120.55640573
  -Hartree energ DENC   =      -514.45064557
  -exchange      EXHF   =         0.00000000
  -V(xc)+E(xc)   XCENC  =        33.57387682
  PAW double counting   =       557.52669510     -559.26016175
  entropy T*S    EENTRO =        -0.00000000
  eigenvalues    EBANDS =      -109.40675620
  atomic energy  EATOM  =       457.26981990
  Solvation  Ediel_sol  =         0.00000000
  ---------------------------------------------------
  free energy    TOTEN  =       -14.16273455 eV

  energy without entropy =      -14.16273455  energy(sigma->0) =      -14.16273455


--------------------------------------------------------------------------------------------------------




--------------------------------------- Iteration     16(   5)  ---------------------------------------


    POTLOK:  cpu time      0.0634: real time      0.0645
    SETDIJ:  cpu time      0.0897: real time      0.0904
     EDDAV:  cpu time      0.3173: real time      0.3204
       DOS:  cpu time      0.0006: real time      0.0006
    CHARGE:  cpu time      0.0639: real time      0.0652
    MIXING:  cpu time      0.0037: real time      0.0037
    --------------------------------------------
      LOOP:  cpu time      0.5386: real time      0.5447

 eigenvalue-minimisations  :   128
 total energy-change (2. order) :-0.8210929E-04  (-0.1220953E-05)
 number of electron       8.0000002 magnetization 
 augmentation part        0.6805593 magnetization 

 Broyden mixing:
  rms(total) = 0.75498E-03    rms(broyden)= 0.75370E-03
  rms(prec ) = 0.84713E-03
  weight for this iteration     100.00

 eigenvalues of (default mixing * dielectric matrix)
  average eigenvalue GAMMA=   1.5947
  2.5511  1.7617  0.9338  1.1322

 Free energy of the ion-electron system (eV)
  ---------------------------------------------------
  alpha Z        PSCENC =         0.02803141
  Ewald energy   TEWEN  =       120.55640573
  -Hartree energ DENC   =      -514.46083472
  -exchange      EXHF   =         0.00000000
  -V(xc)+E(xc)   XCENC  =        33.57438209
  PAW double counting   =       557.81192351     -559.54611870
  entropy T*S    EENTRO =        -0.00000000
  eigenvalues    EBANDS =      -109.39642588
  atomic energy  EATOM  =       457.26981990
  Solvation  Ediel_sol  =         0.00000000
  ---------------------------------------------------
  free energy    TOTEN  =       -14.16281666 eV

  energy without entropy =      -14.16281666  energy(sigma->0) =      -14.16281666


--------------------------------------------------------------------------------------------------------




--------------------------------------- Iteration     16(   6)  ---------------------------------------


    POTLOK:  cpu time      0.0634: real time      0.0643
    SETDIJ:  cpu time      0.0895: real time      0.0902
     EDDAV:  cpu time      0.2419: real time      0.2443
       DOS:  cpu time      0.0006: real time      0.0006
    CHARGE:  cpu time      0.0639: real time      0.0653
    MIXING:  cpu time      0.0025: real time      0.0025
    --------------------------------------------
      LOOP:  cpu time      0.4618: real time      0.4673

 eigenvalue-minimisations  :    96
 total energy-change (2. order) :-0.3526865E-04  (-0.4206904E-06)
 number of electron       8.0000002 magnetization 
 augmentation part        0.6805698 magnetization 

 Broyden mixing:
  rms(total) = 0.16173E-03    rms(broyden)= 0.16137E-03
  rms(prec ) = 0.30354E-03
  weight for this iteration     100.00

 eigenvalues of (default mixing * dielectric matrix)
  average eigenvalue GAMMA=   1.6370
  2.6200  0.9490  1.1439  1.8853  1.5867

 Free energy of the ion-electron system (eV)
  ---------------------------------------------------
  alpha Z        PSCENC =         0.02803141
  Ewald energy   TEWEN  =       120.55640573
  -Hartree energ DENC   =      -514.46243525
  -exchange      EXHF   =         0.00000000
  -V(xc)+E(xc)   XCENC  =        33.57440504
  PAW double counting   =       557.92135791     -559.65578484
  entropy T*S    EENTRO =        -0.00000000
  eigenvalues    EBANDS =      -109.39465184
  atomic energy  EATOM  =       457.26981990
  Solvation  Ediel_sol  =         0.00000000
  ---------------------------------------------------
  free energy    TOTEN  =       -14.16285193 eV

  energy without entropy =      -14.16285193  energy(sigma->0) =      -14.16285193


--------------------------------------------------------------------------------------------------------




--------------------------------------- Iteration     16(   7)  ---------------------------------------


    POTLOK:  cpu time      0.0644: real time      0.0655
    SETDIJ:  cpu time      0.0901: real time      0.0907
     EDDAV:  cpu time      0.1694: real time      0.1712
       DOS:  cpu time      0.0005: real time      0.0005
    CHARGE:  cpu time      0.0637: real time      0.0652
    MIXING:  cpu time      0.0023: real time      0.0023
    --------------------------------------------
      LOOP:  cpu time      0.3904: real time      0.3953

 eigenvalue-minimisations  :    64
 total energy-change (2. order) :-0.3706135E-04  (-0.2487778E-06)
 number of electron       8.0000002 magnetization 
 augmentation part        0.6805799 magnetization 

 Broyden mixing:
  rms(total) = 0.97892E-04    rms(broyden)= 0.97634E-04
  rms(prec ) = 0.19641E-03
  weight for this iteration     100.00

 eigenvalues of (default mixing * dielectric matrix)
  average eigenvalue GAMMA=   1.7199
  2.6707  2.5857  1.6167  1.0034  1.0528  1.3898

 Free energy of the ion-electron system (eV)
  ---------------------------------------------------
  alpha Z        PSCENC =         0.02803141
  Ewald energy   TEWEN  =       120.55640573
  -Hartree energ DENC   =      -514.46298530
  -exchange      EXHF   =         0.00000000
  -V(xc)+E(xc)   XCENC  =        33.57433876
  PAW double counting   =       557.91389064     -559.64828720
  entropy T*S    EENTRO =        -0.00000000
  eigenvalues    EBANDS =      -109.39410294
  atomic energy  EATOM  =       457.26981990
  Solvation  Ediel_sol  =         0.00000000
  ---------------------------------------------------
  free energy    TOTEN  =       -14.16288899 eV

  energy without entropy =      -14.16288899  energy(sigma->0) =      -14.16288899


--------------------------------------------------------------------------------------------------------




--------------------------------------- Iteration     16(   8)  ---------------------------------------


    POTLOK:  cpu time      0.0641: real time      0.0654
    SETDIJ:  cpu time      0.0901: real time      0.0907
     EDDAV:  cpu time      0.1731: real time      0.1750
       DOS:  cpu time      0.0005: real time      0.0005
    CHARGE:  cpu time      0.0638: real time      0.0651
    MIXING:  cpu time      0.0023: real time      0.0024
    --------------------------------------------
      LOOP:  cpu time      0.3940: real time      0.3990

 eigenvalue-minimisations  :    64
 total energy-change (2. order) :-0.3223483E-04  (-0.2242319E-06)
 number of electron       8.0000002 magnetization 
 augmentation part        0.6805730 magnetization 

 Broyden mixing:
  rms(total) = 0.56382E-04    rms(broyden)= 0.56211E-04
  rms(prec ) = 0.11251E-03
  weight for this iteration     100.00

 eigenvalues of (default mixing * dielectric matrix)
  average eigenvalue GAMMA=   1.8450
  3.8087  2.5427  1.7320  1.7320  1.0309  1.0345  1.0345

 Free energy of the ion-electron system (eV)
  ---------------------------------------------------
  alpha Z        PSCENC =         0.02803141
  Ewald energy   TEWEN  =       120.55640573
  -Hartree energ DENC   =      -514.46566003
  -exchange      EXHF   =         0.00000000
  -V(xc)+E(xc)   XCENC  =        33.57439991
  PAW double counting   =       557.90561817     -559.64002279
  entropy T*S    EENTRO =        -0.00000000
  eigenvalues    EBANDS =      -109.39151353
  atomic energy  EATOM  =       457.26981990
  Solvation  Ediel_sol  =         0.00000000
  ---------------------------------------------------
  free energy    TOTEN  =       -14.16292123 eV

  energy without entropy =      -14.16292123  energy(sigma->0) =      -14.16292123


--------------------------------------------------------------------------------------------------------




--------------------------------------- Iteration     16(   9)  ---------------------------------------


    POTLOK:  cpu time      0.0640: real time      0.0652
    SETDIJ:  cpu time      0.0893: real time      0.0900
     EDDAV:  cpu time      0.3201: real time      0.3233
       DOS:  cpu time      0.0006: real time      0.0006
    CHARGE:  cpu time      0.0641: real time      0.0653
    MIXING:  cpu time      0.0025: real time      0.0025
    --------------------------------------------
      LOOP:  cpu time      0.5405: real time      0.5469

 eigenvalue-minimisations  :   128
 total energy-change (2. order) :-0.1991082E-04  (-0.1244442E-06)
 number of electron       8.0000002 magnetization 
 augmentation part        0.6805746 magnetization 

 Broyden mixing:
  rms(total) = 0.31499E-04    rms(broyden)= 0.31246E-04
  rms(prec ) = 0.60008E-04
  weight for this iteration     100.00

 eigenvalues of (default mixing * dielectric matrix)
  average eigenvalue GAMMA=   2.1343
  6.0152  2.6369  2.3813  1.7064  1.3185  0.9745  0.9745  1.0673

 Free energy of the ion-electron system (eV)
  ---------------------------------------------------
  alpha Z        PSCENC =         0.02803141
  Ewald energy   TEWEN  =       120.55640573
  -Hartree energ DENC   =      -514.46644125
  -exchange      EXHF   =         0.00000000
  -V(xc)+E(xc)   XCENC  =        33.57439215
  PAW double counting   =       557.90551526     -559.63992484
  entropy T*S    EENTRO =        -0.00000000
  eigenvalues    EBANDS =      -109.39073951
  atomic energy  EATOM  =       457.26981990
  Solvation  Ediel_sol  =         0.00000000
  ---------------------------------------------------
  free energy    TOTEN  =       -14.16294114 eV

  energy without entropy =      -14.16294114  energy(sigma->0) =      -14.16294114


--------------------------------------------------------------------------------------------------------




--------------------------------------- Iteration     16(  10)  ---------------------------------------


    POTLOK:  cpu time      0.0650: real time      0.0656
    SETDIJ:  cpu time      0.0956: real time      0.0964
     EDDAV:  cpu time      0.2473: real time      0.2501
       DOS:  cpu time      0.0005: real time      0.0006
    CHARGE:  cpu time      0.0638: real time      0.0650
    MIXING:  cpu time      0.0027: real time      0.0027
    --------------------------------------------
      LOOP:  cpu time      0.4749: real time      0.4803

 eigenvalue-minimisations  :    96
 total energy-change (2. order) :-0.1093566E-04  (-0.4454575E-07)
 number of electron       8.0000002 magnetization 
 augmentation part        0.6805749 magnetization 

 Broyden mixing:
  rms(total) = 0.20366E-04    rms(broyden)= 0.20063E-04
  rms(prec ) = 0.33440E-04
  weight for this iteration     100.00

 eigenvalues of (default mixing * dielectric matrix)
  average eigenvalue GAMMA=   2.2798
  7.0005  3.0962  2.5420  1.9037  1.7788  0.9874  1.0257  1.0257  1.1583

 Free energy of the ion-electron system (eV)
  ---------------------------------------------------
  alpha Z        PSCENC =         0.02803141
  Ewald energy   TEWEN  =       120.55640573
  -Hartree energ DENC   =      -514.46661727
  -exchange      EXHF   =         0.00000000
  -V(xc)+E(xc)   XCENC  =        33.57438200
  PAW double counting   =       557.90667060     -559.64108360
  entropy T*S    EENTRO =        -0.00000000
  eigenvalues    EBANDS =      -109.39056084
  atomic energy  EATOM  =       457.26981990
  Solvation  Ediel_sol  =         0.00000000
  ---------------------------------------------------
  free energy    TOTEN  =       -14.16295207 eV

  energy without entropy =      -14.16295207  energy(sigma->0) =      -14.16295207


--------------------------------------------------------------------------------------------------------




--------------------------------------- Iteration     16(  11)  ---------------------------------------


    POTLOK:  cpu time      0.0657: real time      0.0666
    SETDIJ:  cpu time      0.0896: real time      0.0904
     EDDAV:  cpu time      0.2369: real time      0.2393
       DOS:  cpu time      0.0006: real time      0.0006
    CHARGE:  cpu time      0.0635: real time      0.0647
    MIXING:  cpu time      0.0032: real time      0.0032
    --------------------------------------------
      LOOP:  cpu time      0.4595: real time      0.4649

 eigenvalue-minimisations  :    96
 total energy-change (2. order) :-0.6017820E-05  (-0.1134405E-07)
 number of electron       8.0000002 magnetization 
 augmentation part        0.6805739 magnetization 

 Broyden mixing:
  rms(total) = 0.94845E-05    rms(broyden)= 0.89046E-05
  rms(prec ) = 0.15062E-04
  weight for this iteration     100.00

 eigenvalues of (default mixing * dielectric matrix)
  average eigenvalue GAMMA=   2.3790
  7.7458  3.8921  2.6230  2.4246  1.7008  1.3507  1.0082  1.0082  0.9736  1.0634

 Free energy of the ion-electron system (eV)
  ---------------------------------------------------
  alpha Z        PSCENC =         0.02803141
  Ewald energy   TEWEN  =       120.55640573
  -Hartree energ DENC   =      -514.46636048
  -exchange      EXHF   =         0.00000000
  -V(xc)+E(xc)   XCENC  =        33.57436855
  PAW double counting   =       557.90902479     -559.64343890
  entropy T*S    EENTRO =        -0.00000000
  eigenvalues    EBANDS =      -109.39080909
  atomic energy  EATOM  =       457.26981990
  Solvation  Ediel_sol  =         0.00000000
  ---------------------------------------------------
  free energy    TOTEN  =       -14.16295809 eV

  energy without entropy =      -14.16295809  energy(sigma->0) =      -14.16295809


--------------------------------------------------------------------------------------------------------




--------------------------------------- Iteration     16(  12)  ---------------------------------------


    POTLOK:  cpu time      0.0659: real time      0.0665
    SETDIJ:  cpu time      0.0901: real time      0.0908
     EDDAV:  cpu time      0.3169: real time      0.3200
       DOS:  cpu time      0.0007: real time      0.0007
    CHARGE:  cpu time      0.0641: real time      0.0654
    MIXING:  cpu time      0.0036: real time      0.0036
    --------------------------------------------
      LOOP:  cpu time      0.5414: real time      0.5469

 eigenvalue-minimisations  :   128
 total energy-change (2. order) :-0.1705402E-05  (-0.1783519E-08)
 number of electron       8.0000002 magnetization 
 augmentation part        0.6805745 magnetization 

 Broyden mixing:
  rms(total) = 0.87717E-05    rms(broyden)= 0.81443E-05
  rms(prec ) = 0.10687E-04
  weight for this iteration     100.00

 eigenvalues of (default mixing * dielectric matrix)
  average eigenvalue GAMMA=   2.4815
  8.2064  4.6623  2.8082  2.5495  2.1190  1.7310  1.1796  1.0434  1.0434  0.9770
  0.9770

 Free energy of the ion-electron system (eV)
  ---------------------------------------------------
  alpha Z        PSCENC =         0.02803141
  Ewald energy   TEWEN  =       120.55640573
  -Hartree energ DENC   =      -514.46618966
  -exchange      EXHF   =         0.00000000
  -V(xc)+E(xc)   XCENC  =        33.57435811
  PAW double counting   =       557.90842149     -559.64283214
  entropy T*S    EENTRO =        -0.00000000
  eigenvalues    EBANDS =      -109.39097464
  atomic energy  EATOM  =       457.26981990
  Solvation  Ediel_sol  =         0.00000000
  ---------------------------------------------------
  free energy    TOTEN  =       -14.16295980 eV

  energy without entropy =      -14.16295980  energy(sigma->0) =      -14.16295980


--------------------------------------------------------------------------------------------------------




--------------------------------------- Iteration     16(  13)  ---------------------------------------


    POTLOK:  cpu time      0.0660: real time      0.0666
    SETDIJ:  cpu time      0.0902: real time      0.0912
     EDDAV:  cpu time      0.3186: real time      0.3218
       DOS:  cpu time      0.0006: real time      0.0006
    CHARGE:  cpu time      0.0634: real time      0.0646
    MIXING:  cpu time      0.0030: real time      0.0030
    --------------------------------------------
      LOOP:  cpu time      0.5419: real time      0.5478

 eigenvalue-minimisations  :   128
 total energy-change (2. order) :-0.1186428E-05  (-0.9633165E-09)
 number of electron       8.0000002 magnetization 
 augmentation part        0.6805743 magnetization 

 Broyden mixing:
  rms(total) = 0.47102E-05    rms(broyden)= 0.34043E-05
  rms(prec ) = 0.46389E-05
  weight for this iteration     100.00
  WARNING: grid for Broyden might be to small

 eigenvalues of (default mixing * dielectric matrix)
  average eigenvalue GAMMA=   2.5306
  8.6801  5.2181  3.1586  2.5372  2.4361  1.7142  1.4580  1.1236  1.0382  1.0382
  0.9826  0.9826

 Free energy of the ion-electron system (eV)
  ---------------------------------------------------
  alpha Z        PSCENC =         0.02803141
  Ewald energy   TEWEN  =       120.55640573
  -Hartree energ DENC   =      -514.46618436
  -exchange      EXHF   =         0.00000000
  -V(xc)+E(xc)   XCENC  =        33.57435778
  PAW double counting   =       557.90749019     -559.64190086
  entropy T*S    EENTRO =        -0.00000000
  eigenvalues    EBANDS =      -109.39098077
  atomic energy  EATOM  =       457.26981990
  Solvation  Ediel_sol  =         0.00000000
  ---------------------------------------------------
  free energy    TOTEN  =       -14.16296098 eV

  energy without entropy =      -14.16296098  energy(sigma->0) =      -14.16296098


--------------------------------------------------------------------------------------------------------




--------------------------------------- Iteration     16(  14)  ---------------------------------------


    POTLOK:  cpu time      0.0667: real time      0.0672
    SETDIJ:  cpu time      0.0898: real time      0.0904
     EDDAV:  cpu time      0.3234: real time      0.3267
       DOS:  cpu time      0.0007: real time      0.0007
    CHARGE:  cpu time      0.0632: real time      0.0645
    MIXING:  cpu time      0.0030: real time      0.0030
    --------------------------------------------
      LOOP:  cpu time      0.5467: real time      0.5525

 eigenvalue-minimisations  :   128
 total energy-change (2. order) :-0.3845699E-06  (-0.1543778E-09)
 number of electron       8.0000002 magnetization 
 augmentation part        0.6805747 magnetization 

 Broyden mixing:
  rms(total) = 0.42919E-05    rms(broyden)= 0.27977E-05
  rms(prec ) = 0.33167E-05
  weight for this iteration     100.00
  WARNING: grid for Broyden might be to small

 eigenvalues of (default mixing * dielectric matrix)
  average eigenvalue GAMMA=   2.5557
  9.1266  5.6587  3.3350  2.6308  2.4357  2.0710  1.7386  1.1730  1.0781  1.0227
  0.9818  0.9861  0.9861

 Free energy of the ion-electron system (eV)
  ---------------------------------------------------
  alpha Z        PSCENC =         0.02803141
  Ewald energy   TEWEN  =       120.55640573
  -Hartree energ DENC   =      -514.46614621
  -exchange      EXHF   =         0.00000000
  -V(xc)+E(xc)   XCENC  =        33.57435531
  PAW double counting   =       557.90763370     -559.64204471
  entropy T*S    EENTRO =        -0.00000000
  eigenvalues    EBANDS =      -109.39101650
  atomic energy  EATOM  =       457.26981990
  Solvation  Ediel_sol  =         0.00000000
  ---------------------------------------------------
  free energy    TOTEN  =       -14.16296137 eV

  energy without entropy =      -14.16296137  energy(sigma->0) =      -14.16296137


--------------------------------------------------------------------------------------------------------




--------------------------------------- Iteration     16(  15)  ---------------------------------------


    POTLOK:  cpu time      0.0664: real time      0.0669
    SETDIJ:  cpu time      0.0901: real time      0.0908
     EDDAV:  cpu time      0.3915: real time      0.3948
       DOS:  cpu time      0.0005: real time      0.0005
    CHARGE:  cpu time      0.0639: real time      0.0652
    MIXING:  cpu time      0.0031: real time      0.0032
    --------------------------------------------
      LOOP:  cpu time      0.6155: real time      0.6214

 eigenvalue-minimisations  :   128
 total energy-change (2. order) :-0.1912158E-06  (-0.5656098E-10)
 number of electron       8.0000002 magnetization 
 augmentation part        0.6805744 magnetization 

 Broyden mixing:
  rms(total) = 0.33771E-05    rms(broyden)= 0.90179E-06
  rms(prec ) = 0.12939E-05
  weight for this iteration     100.00
  WARNING: grid for Broyden might be to small

 eigenvalues of (default mixing * dielectric matrix)
  average eigenvalue GAMMA=   2.6206
  9.3620  6.1023  3.8256  2.9089  2.5412  2.2625  1.7535  1.7535  1.1673  1.0837
  0.9944  0.9944  0.9695  0.9695

 Free energy of the ion-electron system (eV)
  ---------------------------------------------------
  alpha Z        PSCENC =         0.02803141
  Ewald energy   TEWEN  =       120.55640573
  -Hartree energ DENC   =      -514.46618942
  -exchange      EXHF   =         0.00000000
  -V(xc)+E(xc)   XCENC  =        33.57435763
  PAW double counting   =       557.90792469     -559.64233631
  entropy T*S    EENTRO =        -0.00000000
  eigenvalues    EBANDS =      -109.39097519
  atomic energy  EATOM  =       457.26981990
  Solvation  Ediel_sol  =         0.00000000
  ---------------------------------------------------
  free energy    TOTEN  =       -14.16296156 eV

  energy without entropy =      -14.16296156  energy(sigma->0) =      -14.16296156


--------------------------------------------------------------------------------------------------------




--------------------------------------- Iteration     16(  16)  ---------------------------------------


    POTLOK:  cpu time      0.0657: real time      0.0667
    SETDIJ:  cpu time      0.0906: real time      0.0912
     EDDAV:  cpu time      0.1692: real time      0.1710
       DOS:  cpu time      0.0006: real time      0.0006
    CHARGE:  cpu time      0.0636: real time      0.0648
    MIXING:  cpu time      0.0033: real time      0.0034
    --------------------------------------------
      LOOP:  cpu time      0.3930: real time      0.3977

 eigenvalue-minimisations  :    64
 total energy-change (2. order) :-0.1343982E-06  (-0.3410250E-10)
 number of electron       8.0000002 magnetization 
 augmentation part        0.6805745 magnetization 

 Broyden mixing:
  rms(total) = 0.33087E-05    rms(broyden)= 0.59747E-06
  rms(prec ) = 0.72235E-06
  weight for this iteration     100.00
  WARNING: grid for Broyden might be to small

 eigenvalues of (default mixing * dielectric matrix)
  average eigenvalue GAMMA=   2.6391
  9.5266  6.7786  4.4545  2.9133  2.5537  2.4179  1.9440  1.7439  1.1491  1.1491
  1.0709  0.9947  0.9947  0.9787  0.9165

 Free energy of the ion-electron system (eV)
  ---------------------------------------------------
  alpha Z        PSCENC =         0.02803141
  Ewald energy   TEWEN  =       120.55640573
  -Hartree energ DENC   =      -514.46618449
  -exchange      EXHF   =         0.00000000
  -V(xc)+E(xc)   XCENC  =        33.57435718
  PAW double counting   =       557.90789396     -559.64230505
  entropy T*S    EENTRO =        -0.00000000
  eigenvalues    EBANDS =      -109.39098034
  atomic energy  EATOM  =       457.26981990
  Solvation  Ediel_sol  =         0.00000000
  ---------------------------------------------------
  free energy    TOTEN  =       -14.16296169 eV

  energy without entropy =      -14.16296169  energy(sigma->0) =      -14.16296169


--------------------------------------------------------------------------------------------------------




--------------------------------------- Iteration     16(  17)  ---------------------------------------


    POTLOK:  cpu time      0.0669: real time      0.0675
    SETDIJ:  cpu time      0.0901: real time      0.0908
     EDDAV:  cpu time      0.3144: real time      0.3176
       DOS:  cpu time      0.0007: real time      0.0007
    CHARGE:  cpu time      0.0640: real time      0.0652
    MIXING:  cpu time      0.0035: real time      0.0035
    --------------------------------------------
      LOOP:  cpu time      0.5396: real time      0.5451

 eigenvalue-minimisations  :   128
 total energy-change (2. order) :-0.3125319E-07  (-0.1340084E-10)
 number of electron       8.0000002 magnetization 
 augmentation part        0.6805745 magnetization 

 Broyden mixing:
  rms(total) = 0.32638E-05    rms(broyden)= 0.24986E-06
  rms(prec ) = 0.35356E-06
  weight for this iteration     100.00
  WARNING: grid for Broyden might be to small

 eigenvalues of (default mixing * dielectric matrix)
  average eigenvalue GAMMA=   2.6685
  9.6770  7.0412  4.7392  3.0656  2.7091  2.4896  1.9977  1.9977  1.7279  1.1921
  1.1159  1.0076  1.0076  1.0058  0.9937  0.9279

 Free energy of the ion-electron system (eV)
  ---------------------------------------------------
  alpha Z        PSCENC =         0.02803141
  Ewald energy   TEWEN  =       120.55640573
  -Hartree energ DENC   =      -514.46619165
  -exchange      EXHF   =         0.00000000
  -V(xc)+E(xc)   XCENC  =        33.57435755
  PAW double counting   =       557.90786700     -559.64227821
  entropy T*S    EENTRO =        -0.00000000
  eigenvalues    EBANDS =      -109.39097345
  atomic energy  EATOM  =       457.26981990
  Solvation  Ediel_sol  =         0.00000000
  ---------------------------------------------------
  free energy    TOTEN  =       -14.16296173 eV

  energy without entropy =      -14.16296173  energy(sigma->0) =      -14.16296173


--------------------------------------------------------------------------------------------------------




--------------------------------------- Iteration     16(  18)  ---------------------------------------


    POTLOK:  cpu time      0.0663: real time      0.0668
    SETDIJ:  cpu time      0.0901: real time      0.0908
     EDDAV:  cpu time      0.2405: real time      0.2429
       DOS:  cpu time      0.0008: real time      0.0008
    CHARGE:  cpu time      0.0632: real time      0.0645
    MIXING:  cpu time      0.0034: real time      0.0034
    --------------------------------------------
      LOOP:  cpu time      0.4643: real time      0.4692

 eigenvalue-minimisations  :    96
 total energy-change (2. order) :-0.2284855E-07  (-0.1383604E-10)
 number of electron       8.0000002 magnetization 
 augmentation part        0.6805745 magnetization 

 Broyden mixing:
  rms(total) = 0.32575E-05    rms(broyden)= 0.14625E-06
  rms(prec ) = 0.19110E-06
  weight for this iteration     100.00
  WARNING: grid for Broyden might be to small

 eigenvalues of (default mixing * dielectric matrix)
  average eigenvalue GAMMA=   2.6904
  9.8053  7.2765  5.1024  3.7808  2.7542  2.4901  2.4901  1.9142  1.7444  1.1813
  1.1813  1.1096  1.0057  1.0057  0.9825  0.9825  0.9305

 Free energy of the ion-electron system (eV)
  ---------------------------------------------------
  alpha Z        PSCENC =         0.02803141
  Ewald energy   TEWEN  =       120.55640573
  -Hartree energ DENC   =      -514.46619337
  -exchange      EXHF   =         0.00000000
  -V(xc)+E(xc)   XCENC  =        33.57435762
  PAW double counting   =       557.90785434     -559.64226573
  entropy T*S    EENTRO =        -0.00000000
  eigenvalues    EBANDS =      -109.39097165
  atomic energy  EATOM  =       457.26981990
  Solvation  Ediel_sol  =         0.00000000
  ---------------------------------------------------
  free energy    TOTEN  =       -14.16296175 eV

  energy without entropy =      -14.16296175  energy(sigma->0) =      -14.16296175


--------------------------------------------------------------------------------------------------------




--------------------------------------- Iteration     16(  19)  ---------------------------------------


    POTLOK:  cpu time      0.0658: real time      0.0670
    SETDIJ:  cpu time      0.0901: real time      0.0908
     EDDAV:  cpu time      0.3156: real time      0.3190
       DOS:  cpu time      0.0004: real time      0.0004
    --------------------------------------------
      LOOP:  cpu time      0.4719: real time      0.4772

 eigenvalue-minimisations  :   128
 total energy-change (2. order) :-0.3952891E-08  (-0.1244338E-10)
 number of electron       8.0000002 magnetization 
 augmentation part        0.6805745 magnetization 

 Free energy of the ion-electron system (eV)
  ---------------------------------------------------
  alpha Z        PSCENC =         0.02803141
  Ewald energy   TEWEN  =       120.55640573
  -Hartree energ DENC   =      -514.46618809
  -exchange      EXHF   =         0.00000000
  -V(xc)+E(xc)   XCENC  =        33.57435735
  PAW double counting   =       557.90784529     -559.64225664
  entropy T*S    EENTRO =        -0.00000000
  eigenvalues    EBANDS =      -109.39097671
  atomic energy  EATOM  =       457.26981990
  Solvation  Ediel_sol  =         0.00000000
  ---------------------------------------------------
  free energy    TOTEN  =       -14.16296175 eV

  energy without entropy =      -14.16296175  energy(sigma->0) =      -14.16296175


--------------------------------------------------------------------------------------------------------




 average (electrostatic) potential at core
  the test charge radii are     0.5201  0.7215
  (the norm of the test charge is              1.0000)
       1 -44.6195       2 -44.9301       3 -80.7538



 E-fermi :  -7.1072     XC(G=0):  -0.1044     alpha+bet : -0.0163

 val. band max:       -7.1634697690   @ k =   0.0000   0.0000   0.0000
 cond. band min:      -1.0905225615   @ k =   0.0000   0.0000   0.0000
 fundamental gap:      6.0729472075
 Fermi energy:        -7.1071547054

 k-point     1 :       0.0000    0.0000    0.0000
  band No.  band energies     occupation 
      1     -25.2883      2.00000
      2     -12.9446      2.00000
      3      -9.2992      2.00000
      4      -7.1635      2.00000
      5      -1.0905      0.00000
      6       0.0112      0.00000
      7       0.1930      0.00000
      8       0.2970      0.00000
      9       0.3126      0.00000
     10       0.3422      0.00000
     11       0.3481      0.00000
     12       0.4610      0.00000
     13       0.4947      0.00000
     14       0.6009      0.00000
     15       0.6225      0.00000
     16       0.7080      0.00000
     17       0.7085      0.00000
     18       0.7137      0.00000
     19       0.7180      0.00000
     20       0.7223      0.00000
     21       0.7303      0.00000
     22       0.7318      0.00000
     23       0.7372      0.00000
     24       0.9305      0.00000
     25       0.9399      0.00000
     26       1.0203      0.00000
     27       1.0347      0.00000
     28       1.0812      0.00000
     29       1.0854      0.00000
     30       1.0885      0.00000
     31       1.1048      0.00000
     32       1.2470      0.00000


--------------------------------------------------------------------------------------------------------


 soft charge-density along one line, spin component           1
         0         1         2         3         4         5         6         7         8         9
 total charge-density along one line

 pseudopotential strength for first ion, spin component:           1
 -2.378  -4.107  -0.021   0.000   0.002
 -4.107  -7.006  -0.040   0.000   0.004
 -0.021  -0.040  -0.286  -0.000  -0.004
  0.000   0.000  -0.000  -0.328  -0.000
  0.002   0.004  -0.004  -0.000  -0.327
 total augmentation occupancy for first ion, spin component:           1
  3.860  -0.845   0.656  -0.000  -0.093
 -0.845   0.228  -0.143   0.000   0.025
  0.656  -0.143   0.112  -0.000  -0.015
 -0.000   0.000  -0.000   0.034  -0.000
 -0.093   0.025  -0.015  -0.000   0.024


------------------------ aborting loop because EDIFF is reached ----------------------------------------


    CHARGE:  cpu time      0.0638: real time      0.0646
    FORLOC:  cpu time      0.0024: real time      0.0025
    FORNL :  cpu time      0.2457: real time      0.2485
    STRESS:  cpu time      0.9271: real time      0.9372
    FORCOR:  cpu time      0.0558: real time      0.0562
    FORHAR:  cpu time      0.0146: real time      0.0147
    MIXING:  cpu time      0.0027: real time      0.0028
    OFIELD:  cpu time      0.0000: real time      0.0000

 ---------------------------------------------------------------------------------------------

         DFTD3 V3.0 Rev 1        
 Edisp (eV)   -0.00135

 E6    (eV) :    -0.0013
 E8    (eV) :    -0.0001
 % E8        :  5.26
    FORVDW:  cpu time      0.0080: real time      0.0081

  FORCE on cell =-STRESS in cart. coord.  units (eV):
  Direction    XX          YY          ZZ          XY          YZ          ZX
  --------------------------------------------------------------------------------------
  Alpha Z     0.02803     0.02803     0.02803
  Ewald      59.00534    83.36785   -21.81680    21.88206    -0.00008     0.00019
  Hartree   174.71599   179.46086   160.28934     3.60133    -0.00002     0.00003
  E(xc)     -36.26374   -36.13212   -36.72502     0.10330    -0.00000     0.00000
  Local    -318.66211  -341.46251  -248.27953   -19.14480     0.00007    -0.00016
  n-local   -30.67418   -29.91671   -30.73583     0.30377     0.00000     0.00000
  augment     6.40185     5.93992     8.06696    -0.38574     0.00000    -0.00000
  Kinetic   145.00809   137.24959   168.34294    -6.01487     0.00002    -0.00006
  Fock        0.00000     0.00000     0.00000     0.00000     0.00000     0.00000
  vdW         0.00261     0.00808    -0.00000     0.00413     0.00000     0.00000
  -------------------------------------------------------------------------------------
  Total      -0.43812    -1.45701    -0.82992     0.34916     0.00000     0.00000
  in kB      -0.08774    -0.29180    -0.16621     0.06993     0.00000     0.00000
  external pressure =       -0.18 kB  Pullay stress =        0.00 kB


 VOLUME and BASIS-vectors are now :
 -----------------------------------------------------------------------------
  energy-cutoff  :      400.00
  volume of cell :     8000.00
      direct lattice vectors                 reciprocal lattice vectors
    20.000000000  0.000000000  0.000000000     0.050000000  0.000000000  0.000000000
     0.000000000 20.000000000  0.000000000     0.000000000  0.050000000  0.000000000
     0.000000000  0.000000000 20.000000000     0.000000000  0.000000000  0.050000000

  length of vectors
    20.000000000 20.000000000 20.000000000     0.050000000  0.050000000  0.050000000


 FORCES acting on ions
    electron-ion (+dipol)            ewald-force                    non-local-force                 convergence-correction
 -----------------------------------------------------------------------------------------------
   -.102E+02 0.851E+02 -.143E-03   0.110E+02 -.918E+02 0.154E-03   -.952E+00 0.762E+01 -.119E-04   0.111E-06 -.390E-06 0.306E-09
   -.804E+02 -.370E+02 -.167E-03   0.885E+02 0.407E+02 0.185E-03   -.774E+01 -.349E+01 -.164E-04   0.250E-06 0.109E-08 0.401E-09
   0.560E+02 -.288E+02 0.191E-03   -.995E+02 0.511E+02 -.338E-03   0.433E+02 -.233E+02 0.148E-03   0.181E-05 0.163E-06 0.371E-08
 -----------------------------------------------------------------------------------------------
   -.346E+02 0.192E+02 -.119E-03   0.000E+00 0.000E+00 0.401E-17   0.346E+02 -.192E+02 0.120E-03   0.217E-05 -.226E-06 0.442E-08


 POSITION                                       TOTAL-FORCE (eV/Angst)
 -----------------------------------------------------------------------------------
      9.80755      9.62347     10.00000        -0.185912      0.860223     -0.000001
     10.54234     10.97263     10.00000         0.380916      0.209452      0.000000
      9.65011     10.60390     10.00000        -0.195004     -1.069675      0.000001
 -----------------------------------------------------------------------------------
    total drift:                               -0.008754      0.003974      0.000001


--------------------------------------------------------------------------------------------------------



  FREE ENERGIE OF THE ION-ELECTRON SYSTEM (eV)
  ---------------------------------------------------
  free  energy   TOTEN  =       -14.16431258 eV

  energy  without entropy=      -14.16431258  energy(sigma->0) =      -14.16431258

 d Force =-0.2564464E-02[-0.253E-01, 0.202E-01]  d Energy =-0.2138757E-02-0.426E-03
 d Force =-0.9108445E+00[-0.969E+00,-0.853E+00]  d Ewald  =-0.9098101E+00-0.103E-02


--------------------------------------------------------------------------------------------------------


    POTLOK:  cpu time      0.1546: real time      0.1558


--------------------------------------------------------------------------------------------------------


 Finite differences progress:
  Degree of freedom:   8/  9
  Displacement:        1/  2
  Total:              15/ 18
    WAVPRE:  cpu time      0.0099: real time      0.0110
    FEWALD:  cpu time      0.0003: real time      0.0003
    ORTHCH:  cpu time      0.0141: real time      0.0142
     LOOP+:  cpu time     10.9522: real time     11.0760


--------------------------------------- Ionic step       17  -------------------------------------------




--------------------------------------- Iteration     17(   1)  ---------------------------------------


    POTLOK:  cpu time      0.0639: real time      0.0651
    SETDIJ:  cpu time      0.0901: real time      0.0907
     EDDAV:  cpu time      0.9230: real time      0.9280
       DOS:  cpu time      0.0005: real time      0.0005
    CHARGE:  cpu time      0.0632: real time      0.0644
    MIXING:  cpu time      0.0036: real time      0.0036
    --------------------------------------------
      LOOP:  cpu time      1.1444: real time      1.1524

 eigenvalue-minimisations  :    64
 total energy-change (2. order) : 0.4381005E-03  (-0.9137103E+00)
 number of electron       8.0000002 magnetization 
 augmentation part        0.6895420 magnetization 

 Broyden mixing:
  rms(total) = 0.64532E-01    rms(broyden)= 0.62799E-01
  rms(prec ) = 0.65939E-01
  weight for this iteration     100.00

 Free energy of the ion-electron system (eV)
  ---------------------------------------------------
  alpha Z        PSCENC =         0.02803141
  Ewald energy   TEWEN  =       122.70055279
  -Hartree energ DENC   =      -515.30190889
  -exchange      EXHF   =         0.00000000
  -V(xc)+E(xc)   XCENC  =        33.60864535
  PAW double counting   =       557.90785552     -559.64226683
  entropy T*S    EENTRO =        -0.00000000
  eigenvalues    EBANDS =      -110.73325289
  atomic energy  EATOM  =       457.26981990
  Solvation  Ediel_sol  =         0.00000000
  ---------------------------------------------------
  free energy    TOTEN  =       -14.16252365 eV

  energy without entropy =      -14.16252365  energy(sigma->0) =      -14.16252365


--------------------------------------------------------------------------------------------------------




--------------------------------------- Iteration     17(   2)  ---------------------------------------


    POTLOK:  cpu time      0.0676: real time      0.0682
    SETDIJ:  cpu time      0.0899: real time      0.0905
     EDDAV:  cpu time      0.3782: real time      0.3812
       DOS:  cpu time      0.0009: real time      0.0009
    CHARGE:  cpu time      0.0646: real time      0.0658
    MIXING:  cpu time      0.0029: real time      0.0029
    --------------------------------------------
      LOOP:  cpu time      0.6041: real time      0.6095

 eigenvalue-minimisations  :    96
 total energy-change (2. order) : 0.2104780E-02  (-0.8037147E-02)
 number of electron       8.0000002 magnetization 
 augmentation part        0.6877649 magnetization 

 Broyden mixing:
  rms(total) = 0.33636E-01    rms(broyden)= 0.33489E-01
  rms(prec ) = 0.34925E-01
  weight for this iteration     100.00

 eigenvalues of (default mixing * dielectric matrix)
  average eigenvalue GAMMA=   1.5658
  1.5658

 Free energy of the ion-electron system (eV)
  ---------------------------------------------------
  alpha Z        PSCENC =         0.02803141
  Ewald energy   TEWEN  =       122.70055279
  -Hartree energ DENC   =      -515.95903309
  -exchange      EXHF   =         0.00000000
  -V(xc)+E(xc)   XCENC  =        33.64772799
  PAW double counting   =       561.37008502     -563.11368988
  entropy T*S    EENTRO =        -0.00000000
  eigenvalues    EBANDS =      -110.10391301
  atomic energy  EATOM  =       457.26981990
  Solvation  Ediel_sol  =         0.00000000
  ---------------------------------------------------
  free energy    TOTEN  =       -14.16041887 eV

  energy without entropy =      -14.16041887  energy(sigma->0) =      -14.16041887


--------------------------------------------------------------------------------------------------------




--------------------------------------- Iteration     17(   3)  ---------------------------------------


    POTLOK:  cpu time      0.0636: real time      0.0641
    SETDIJ:  cpu time      0.0908: real time      0.0914
     EDDAV:  cpu time      0.3149: real time      0.3179
       DOS:  cpu time      0.0007: real time      0.0007
    CHARGE:  cpu time      0.0639: real time      0.0650
    MIXING:  cpu time      0.0030: real time      0.0030
    --------------------------------------------
      LOOP:  cpu time      0.5368: real time      0.5422

 eigenvalue-minimisations  :   128
 total energy-change (2. order) :-0.3365469E-03  (-0.6794755E-03)
 number of electron       8.0000002 magnetization 
 augmentation part        0.6864958 magnetization 

 Broyden mixing:
  rms(total) = 0.96796E-02    rms(broyden)= 0.96420E-02
  rms(prec ) = 0.99791E-02
  weight for this iteration     100.00

 eigenvalues of (default mixing * dielectric matrix)
  average eigenvalue GAMMA=   1.4894
  1.0903  1.8886

 Free energy of the ion-electron system (eV)
  ---------------------------------------------------
  alpha Z        PSCENC =         0.02803141
  Ewald energy   TEWEN  =       122.70055279
  -Hartree energ DENC   =      -516.23215803
  -exchange      EXHF   =         0.00000000
  -V(xc)+E(xc)   XCENC  =        33.66306666
  PAW double counting   =       564.20936096     -565.96083493
  entropy T*S    EENTRO =        -0.00000000
  eigenvalues    EBANDS =      -109.83859418
  atomic energy  EATOM  =       457.26981990
  Solvation  Ediel_sol  =         0.00000000
  ---------------------------------------------------
  free energy    TOTEN  =       -14.16075542 eV

  energy without entropy =      -14.16075542  energy(sigma->0) =      -14.16075542


--------------------------------------------------------------------------------------------------------




--------------------------------------- Iteration     17(   4)  ---------------------------------------


    POTLOK:  cpu time      0.0634: real time      0.0644
    SETDIJ:  cpu time      0.0897: real time      0.0905
     EDDAV:  cpu time      0.2381: real time      0.2407
       DOS:  cpu time      0.0006: real time      0.0006
    CHARGE:  cpu time      0.0637: real time      0.0650
    MIXING:  cpu time      0.0029: real time      0.0029
    --------------------------------------------
      LOOP:  cpu time      0.4584: real time      0.4641

 eigenvalue-minimisations  :    96
 total energy-change (2. order) :-0.7308959E-03  (-0.6974584E-04)
 number of electron       8.0000002 magnetization 
 augmentation part        0.6872525 magnetization 

 Broyden mixing:
  rms(total) = 0.33844E-02    rms(broyden)= 0.33734E-02
  rms(prec ) = 0.35082E-02
  weight for this iteration     100.00

 eigenvalues of (default mixing * dielectric matrix)
  average eigenvalue GAMMA=   1.4328
  2.1663  1.0660  1.0660

 Free energy of the ion-electron system (eV)
  ---------------------------------------------------
  alpha Z        PSCENC =         0.02803141
  Ewald energy   TEWEN  =       122.70055279
  -Hartree energ DENC   =      -516.15533875
  -exchange      EXHF   =         0.00000000
  -V(xc)+E(xc)   XCENC  =        33.65897980
  PAW double counting   =       565.00060187     -566.75280867
  entropy T*S    EENTRO =        -0.00000000
  eigenvalues    EBANDS =      -109.91132466
  atomic energy  EATOM  =       457.26981990
  Solvation  Ediel_sol  =         0.00000000
  ---------------------------------------------------
  free energy    TOTEN  =       -14.16148631 eV

  energy without entropy =      -14.16148631  energy(sigma->0) =      -14.16148631


--------------------------------------------------------------------------------------------------------




--------------------------------------- Iteration     17(   5)  ---------------------------------------


    POTLOK:  cpu time      0.0628: real time      0.0640
    SETDIJ:  cpu time      0.0897: real time      0.0904
     EDDAV:  cpu time      0.3162: real time      0.3194
       DOS:  cpu time      0.0006: real time      0.0006
    CHARGE:  cpu time      0.0636: real time      0.0648
    MIXING:  cpu time      0.0030: real time      0.0031
    --------------------------------------------
      LOOP:  cpu time      0.5359: real time      0.5423

 eigenvalue-minimisations  :   128
 total energy-change (2. order) :-0.1762127E-03  (-0.3410882E-05)
 number of electron       8.0000002 magnetization 
 augmentation part        0.6870884 magnetization 

 Broyden mixing:
  rms(total) = 0.15128E-02    rms(broyden)= 0.15103E-02
  rms(prec ) = 0.16474E-02
  weight for this iteration     100.00

 eigenvalues of (default mixing * dielectric matrix)
  average eigenvalue GAMMA=   1.5825
  2.5589  1.7586  0.8943  1.1183

 Free energy of the ion-electron system (eV)
  ---------------------------------------------------
  alpha Z        PSCENC =         0.02803141
  Ewald energy   TEWEN  =       122.70055279
  -Hartree energ DENC   =      -516.19121875
  -exchange      EXHF   =         0.00000000
  -V(xc)+E(xc)   XCENC  =        33.66097935
  PAW double counting   =       565.53757895     -567.29138926
  entropy T*S    EENTRO =        -0.00000000
  eigenvalues    EBANDS =      -109.87601692
  atomic energy  EATOM  =       457.26981990
  Solvation  Ediel_sol  =         0.00000000
  ---------------------------------------------------
  free energy    TOTEN  =       -14.16166252 eV

  energy without entropy =      -14.16166252  energy(sigma->0) =      -14.16166252


--------------------------------------------------------------------------------------------------------




--------------------------------------- Iteration     17(   6)  ---------------------------------------


    POTLOK:  cpu time      0.0626: real time      0.0648
    SETDIJ:  cpu time      0.0903: real time      0.0909
     EDDAV:  cpu time      0.2407: real time      0.2432
       DOS:  cpu time      0.0006: real time      0.0006
    CHARGE:  cpu time      0.0636: real time      0.0649
    MIXING:  cpu time      0.0022: real time      0.0022
    --------------------------------------------
      LOOP:  cpu time      0.4601: real time      0.4666

 eigenvalue-minimisations  :    96
 total energy-change (2. order) :-0.8372023E-04  (-0.1420153E-05)
 number of electron       8.0000002 magnetization 
 augmentation part        0.6870753 magnetization 

 Broyden mixing:
  rms(total) = 0.33889E-03    rms(broyden)= 0.33826E-03
  rms(prec ) = 0.50605E-03
  weight for this iteration     100.00

 eigenvalues of (default mixing * dielectric matrix)
  average eigenvalue GAMMA=   1.5055
  2.5648  1.8606  1.0285  1.0285  1.0450

 Free energy of the ion-electron system (eV)
  ---------------------------------------------------
  alpha Z        PSCENC =         0.02803141
  Ewald energy   TEWEN  =       122.70055279
  -Hartree energ DENC   =      -516.20224666
  -exchange      EXHF   =         0.00000000
  -V(xc)+E(xc)   XCENC  =        33.66146183
  PAW double counting   =       565.83128730     -567.58582714
  entropy T*S    EENTRO =        -0.00000000
  eigenvalues    EBANDS =      -109.86482568
  atomic energy  EATOM  =       457.26981990
  Solvation  Ediel_sol  =         0.00000000
  ---------------------------------------------------
  free energy    TOTEN  =       -14.16174624 eV

  energy without entropy =      -14.16174624  energy(sigma->0) =      -14.16174624


--------------------------------------------------------------------------------------------------------




--------------------------------------- Iteration     17(   7)  ---------------------------------------


    POTLOK:  cpu time      0.0642: real time      0.0648
    SETDIJ:  cpu time      0.0898: real time      0.0905
     EDDAV:  cpu time      0.1682: real time      0.1703
       DOS:  cpu time      0.0007: real time      0.0007
    CHARGE:  cpu time      0.0646: real time      0.0659
    MIXING:  cpu time      0.0034: real time      0.0034
    --------------------------------------------
      LOOP:  cpu time      0.3910: real time      0.3955

 eigenvalue-minimisations  :    64
 total energy-change (2. order) :-0.4373286E-04  (-0.3903965E-06)
 number of electron       8.0000002 magnetization 
 augmentation part        0.6871261 magnetization 

 Broyden mixing:
  rms(total) = 0.18215E-03    rms(broyden)= 0.18183E-03
  rms(prec ) = 0.34254E-03
  weight for this iteration     100.00

 eigenvalues of (default mixing * dielectric matrix)
  average eigenvalue GAMMA=   1.6029
  2.6554  2.3339  1.7132  1.1308  0.8921  0.8921

 Free energy of the ion-electron system (eV)
  ---------------------------------------------------
  alpha Z        PSCENC =         0.02803141
  Ewald energy   TEWEN  =       122.70055279
  -Hartree energ DENC   =      -516.19800504
  -exchange      EXHF   =         0.00000000
  -V(xc)+E(xc)   XCENC  =        33.66107246
  PAW double counting   =       565.81549123     -567.56992583
  entropy T*S    EENTRO =        -0.00000000
  eigenvalues    EBANDS =      -109.86882690
  atomic energy  EATOM  =       457.26981990
  Solvation  Ediel_sol  =         0.00000000
  ---------------------------------------------------
  free energy    TOTEN  =       -14.16178998 eV

  energy without entropy =      -14.16178998  energy(sigma->0) =      -14.16178998


--------------------------------------------------------------------------------------------------------




--------------------------------------- Iteration     17(   8)  ---------------------------------------


    POTLOK:  cpu time      0.0646: real time      0.0651
    SETDIJ:  cpu time      0.0903: real time      0.0909
     EDDAV:  cpu time      0.1694: real time      0.1712
       DOS:  cpu time      0.0005: real time      0.0005
    CHARGE:  cpu time      0.0637: real time      0.0648
    MIXING:  cpu time      0.0032: real time      0.0032
    --------------------------------------------
      LOOP:  cpu time      0.3916: real time      0.3958

 eigenvalue-minimisations  :    64
 total energy-change (2. order) :-0.6380673E-04  (-0.4779877E-06)
 number of electron       8.0000002 magnetization 
 augmentation part        0.6871288 magnetization 

 Broyden mixing:
  rms(total) = 0.15124E-03    rms(broyden)= 0.15109E-03
  rms(prec ) = 0.22944E-03
  weight for this iteration     100.00

 eigenvalues of (default mixing * dielectric matrix)
  average eigenvalue GAMMA=   1.7068
  3.4177  2.5496  1.6871  1.3367  1.0002  0.9782  0.9782

 Free energy of the ion-electron system (eV)
  ---------------------------------------------------
  alpha Z        PSCENC =         0.02803141
  Ewald energy   TEWEN  =       122.70055279
  -Hartree energ DENC   =      -516.20256243
  -exchange      EXHF   =         0.00000000
  -V(xc)+E(xc)   XCENC  =        33.66109647
  PAW double counting   =       565.80607699     -567.56051377
  entropy T*S    EENTRO =        -0.00000000
  eigenvalues    EBANDS =      -109.86435514
  atomic energy  EATOM  =       457.26981990
  Solvation  Ediel_sol  =         0.00000000
  ---------------------------------------------------
  free energy    TOTEN  =       -14.16185378 eV

  energy without entropy =      -14.16185378  energy(sigma->0) =      -14.16185378


--------------------------------------------------------------------------------------------------------




--------------------------------------- Iteration     17(   9)  ---------------------------------------


    POTLOK:  cpu time      0.0658: real time      0.0664
    SETDIJ:  cpu time      0.0904: real time      0.0910
     EDDAV:  cpu time      0.1716: real time      0.1734
       DOS:  cpu time      0.0006: real time      0.0006
    CHARGE:  cpu time      0.0646: real time      0.0658
    MIXING:  cpu time      0.0034: real time      0.0034
    --------------------------------------------
      LOOP:  cpu time      0.3964: real time      0.4007

 eigenvalue-minimisations  :    64
 total energy-change (2. order) :-0.3923653E-04  (-0.2879971E-06)
 number of electron       8.0000002 magnetization 
 augmentation part        0.6871061 magnetization 

 Broyden mixing:
  rms(total) = 0.67677E-04    rms(broyden)= 0.67386E-04
  rms(prec ) = 0.11622E-03
  weight for this iteration     100.00

 eigenvalues of (default mixing * dielectric matrix)
  average eigenvalue GAMMA=   2.0783
  5.7781  2.6076  2.3960  1.7931  0.9747  0.9747  1.0511  1.0511

 Free energy of the ion-electron system (eV)
  ---------------------------------------------------
  alpha Z        PSCENC =         0.02803141
  Ewald energy   TEWEN  =       122.70055279
  -Hartree energ DENC   =      -516.20900262
  -exchange      EXHF   =         0.00000000
  -V(xc)+E(xc)   XCENC  =        33.66131548
  PAW double counting   =       565.80503792     -567.55952379
  entropy T*S    EENTRO =        -0.00000000
  eigenvalues    EBANDS =      -109.85812412
  atomic energy  EATOM  =       457.26981990
  Solvation  Ediel_sol  =         0.00000000
  ---------------------------------------------------
  free energy    TOTEN  =       -14.16189302 eV

  energy without entropy =      -14.16189302  energy(sigma->0) =      -14.16189302


--------------------------------------------------------------------------------------------------------




--------------------------------------- Iteration     17(  10)  ---------------------------------------


    POTLOK:  cpu time      0.0656: real time      0.0662
    SETDIJ:  cpu time      0.0904: real time      0.0910
     EDDAV:  cpu time      0.1696: real time      0.1715
       DOS:  cpu time      0.0005: real time      0.0005
    CHARGE:  cpu time      0.0633: real time      0.0646
    MIXING:  cpu time      0.0039: real time      0.0039
    --------------------------------------------
      LOOP:  cpu time      0.3934: real time      0.3976

 eigenvalue-minimisations  :    64
 total energy-change (2. order) :-0.2750850E-04  (-0.1635409E-06)
 number of electron       8.0000002 magnetization 
 augmentation part        0.6871104 magnetization 

 Broyden mixing:
  rms(total) = 0.34204E-04    rms(broyden)= 0.33873E-04
  rms(prec ) = 0.54183E-04
  weight for this iteration     100.00

 eigenvalues of (default mixing * dielectric matrix)
  average eigenvalue GAMMA=   2.0366
  6.1580  2.6878  2.4160  1.7484  1.3718  0.9784  0.9784  0.9953  0.9953

 Free energy of the ion-electron system (eV)
  ---------------------------------------------------
  alpha Z        PSCENC =         0.02803141
  Ewald energy   TEWEN  =       122.70055279
  -Hartree energ DENC   =      -516.20977877
  -exchange      EXHF   =         0.00000000
  -V(xc)+E(xc)   XCENC  =        33.66129060
  PAW double counting   =       565.80298956     -567.55746364
  entropy T*S    EENTRO =        -0.00000000
  eigenvalues    EBANDS =      -109.85736238
  atomic energy  EATOM  =       457.26981990
  Solvation  Ediel_sol  =         0.00000000
  ---------------------------------------------------
  free energy    TOTEN  =       -14.16192053 eV

  energy without entropy =      -14.16192053  energy(sigma->0) =      -14.16192053


--------------------------------------------------------------------------------------------------------




--------------------------------------- Iteration     17(  11)  ---------------------------------------


    POTLOK:  cpu time      0.0647: real time      0.0652
    SETDIJ:  cpu time      0.0901: real time      0.0907
     EDDAV:  cpu time      0.2383: real time      0.2412
       DOS:  cpu time      0.0006: real time      0.0006
    CHARGE:  cpu time      0.0688: real time      0.0701
    MIXING:  cpu time      0.0027: real time      0.0027
    --------------------------------------------
      LOOP:  cpu time      0.4652: real time      0.4706

 eigenvalue-minimisations  :    96
 total energy-change (2. order) :-0.7623505E-05  (-0.1000836E-07)
 number of electron       8.0000002 magnetization 
 augmentation part        0.6871121 magnetization 

 Broyden mixing:
  rms(total) = 0.22753E-04    rms(broyden)= 0.22372E-04
  rms(prec ) = 0.36118E-04
  weight for this iteration     100.00

 eigenvalues of (default mixing * dielectric matrix)
  average eigenvalue GAMMA=   2.2301
  7.3333  3.3397  2.5687  2.2408  1.7860  1.0586  1.0586  0.9641  0.9641  0.9867

 Free energy of the ion-electron system (eV)
  ---------------------------------------------------
  alpha Z        PSCENC =         0.02803141
  Ewald energy   TEWEN  =       122.70055279
  -Hartree energ DENC   =      -516.20907915
  -exchange      EXHF   =         0.00000000
  -V(xc)+E(xc)   XCENC  =        33.66124780
  PAW double counting   =       565.80422536     -567.55870074
  entropy T*S    EENTRO =        -0.00000000
  eigenvalues    EBANDS =      -109.85802552
  atomic energy  EATOM  =       457.26981990
  Solvation  Ediel_sol  =         0.00000000
  ---------------------------------------------------
  free energy    TOTEN  =       -14.16192815 eV

  energy without entropy =      -14.16192815  energy(sigma->0) =      -14.16192815


--------------------------------------------------------------------------------------------------------




--------------------------------------- Iteration     17(  12)  ---------------------------------------


    POTLOK:  cpu time      0.0657: real time      0.0665
    SETDIJ:  cpu time      0.0921: real time      0.0928
     EDDAV:  cpu time      1.2767: real time      1.2987
       DOS:  cpu time      0.0005: real time      0.0005
    CHARGE:  cpu time      0.0643: real time      0.0655
    MIXING:  cpu time      0.0034: real time      0.0035
    --------------------------------------------
      LOOP:  cpu time      1.5028: real time      1.5275

 eigenvalue-minimisations  :   128
 total energy-change (2. order) :-0.6791231E-05  (-0.1482894E-07)
 number of electron       8.0000002 magnetization 
 augmentation part        0.6871105 magnetization 

 Broyden mixing:
  rms(total) = 0.10365E-04    rms(broyden)= 0.95302E-05
  rms(prec ) = 0.16065E-04
  weight for this iteration     100.00

 eigenvalues of (default mixing * dielectric matrix)
  average eigenvalue GAMMA=   2.3102
  7.9440  4.0967  2.6155  2.4280  1.7726  1.5368  1.0416  1.0416  0.9557  0.9557
  1.0240

 Free energy of the ion-electron system (eV)
  ---------------------------------------------------
  alpha Z        PSCENC =         0.02803141
  Ewald energy   TEWEN  =       122.70055279
  -Hartree energ DENC   =      -516.20880307
  -exchange      EXHF   =         0.00000000
  -V(xc)+E(xc)   XCENC  =        33.66123070
  PAW double counting   =       565.80707273     -567.56155388
  entropy T*S    EENTRO =        -0.00000000
  eigenvalues    EBANDS =      -109.85828551
  atomic energy  EATOM  =       457.26981990
  Solvation  Ediel_sol  =         0.00000000
  ---------------------------------------------------
  free energy    TOTEN  =       -14.16193494 eV

  energy without entropy =      -14.16193494  energy(sigma->0) =      -14.16193494


--------------------------------------------------------------------------------------------------------




--------------------------------------- Iteration     17(  13)  ---------------------------------------


    POTLOK:  cpu time      0.0672: real time      0.0678
    SETDIJ:  cpu time      0.0897: real time      0.0903
     EDDAV:  cpu time      0.3155: real time      0.3188
       DOS:  cpu time      0.0008: real time      0.0008
    CHARGE:  cpu time      0.0643: real time      0.0656
    MIXING:  cpu time      0.0031: real time      0.0031
    --------------------------------------------
      LOOP:  cpu time      0.5406: real time      0.5464

 eigenvalue-minimisations  :   128
 total energy-change (2. order) :-0.2255561E-05  (-0.2155012E-08)
 number of electron       8.0000002 magnetization 
 augmentation part        0.6871107 magnetization 

 Broyden mixing:
  rms(total) = 0.82350E-05    rms(broyden)= 0.71588E-05
  rms(prec ) = 0.10113E-04
  weight for this iteration     100.00
  WARNING: grid for Broyden might be to small

 eigenvalues of (default mixing * dielectric matrix)
  average eigenvalue GAMMA=   2.4015
  8.4866  4.8485  2.8482  2.5254  2.1755  1.8010  1.0732  1.0732  0.9614  0.9614
  1.0317  1.0317

 Free energy of the ion-electron system (eV)
  ---------------------------------------------------
  alpha Z        PSCENC =         0.02803141
  Ewald energy   TEWEN  =       122.70055279
  -Hartree energ DENC   =      -516.20859735
  -exchange      EXHF   =         0.00000000
  -V(xc)+E(xc)   XCENC  =        33.66122100
  PAW double counting   =       565.80642802     -567.56090550
  entropy T*S    EENTRO =        -0.00000000
  eigenvalues    EBANDS =      -109.85848747
  atomic energy  EATOM  =       457.26981990
  Solvation  Ediel_sol  =         0.00000000
  ---------------------------------------------------
  free energy    TOTEN  =       -14.16193720 eV

  energy without entropy =      -14.16193720  energy(sigma->0) =      -14.16193720


--------------------------------------------------------------------------------------------------------




--------------------------------------- Iteration     17(  14)  ---------------------------------------


    POTLOK:  cpu time      0.0644: real time      0.0656
    SETDIJ:  cpu time      0.0901: real time      0.0908
     EDDAV:  cpu time      0.3158: real time      0.3189
       DOS:  cpu time      0.0005: real time      0.0005
    CHARGE:  cpu time      0.0637: real time      0.0651
    MIXING:  cpu time      0.0028: real time      0.0028
    --------------------------------------------
      LOOP:  cpu time      0.5373: real time      0.5436

 eigenvalue-minimisations  :   128
 total energy-change (2. order) :-0.1084697E-05  (-0.6776677E-09)
 number of electron       8.0000002 magnetization 
 augmentation part        0.6871113 magnetization 

 Broyden mixing:
  rms(total) = 0.49920E-05    rms(broyden)= 0.28941E-05
  rms(prec ) = 0.46438E-05
  weight for this iteration     100.00
  WARNING: grid for Broyden might be to small

 eigenvalues of (default mixing * dielectric matrix)
  average eigenvalue GAMMA=   2.5198
  8.9435  5.5456  3.3246  2.6323  2.4570  2.0035  1.7913  1.0679  1.0679  0.9605
  0.9605  1.0014  1.0014

 Free energy of the ion-electron system (eV)
  ---------------------------------------------------
  alpha Z        PSCENC =         0.02803141
  Ewald energy   TEWEN  =       122.70055279
  -Hartree energ DENC   =      -516.20855434
  -exchange      EXHF   =         0.00000000
  -V(xc)+E(xc)   XCENC  =        33.66121758
  PAW double counting   =       565.80563812     -567.56011388
  entropy T*S    EENTRO =        -0.00000000
  eigenvalues    EBANDS =      -109.85852987
  atomic energy  EATOM  =       457.26981990
  Solvation  Ediel_sol  =         0.00000000
  ---------------------------------------------------
  free energy    TOTEN  =       -14.16193828 eV

  energy without entropy =      -14.16193828  energy(sigma->0) =      -14.16193828


--------------------------------------------------------------------------------------------------------




--------------------------------------- Iteration     17(  15)  ---------------------------------------


    POTLOK:  cpu time      0.0663: real time      0.0668
    SETDIJ:  cpu time      0.0899: real time      0.0905
     EDDAV:  cpu time      0.3186: real time      0.3220
       DOS:  cpu time      0.0008: real time      0.0008
    CHARGE:  cpu time      0.0643: real time      0.0654
    MIXING:  cpu time      0.0030: real time      0.0030
    --------------------------------------------
      LOOP:  cpu time      0.5428: real time      0.5486

 eigenvalue-minimisations  :   128
 total energy-change (2. order) :-0.5597603E-06  (-0.3344010E-09)
 number of electron       8.0000002 magnetization 
 augmentation part        0.6871109 magnetization 

 Broyden mixing:
  rms(total) = 0.44068E-05    rms(broyden)= 0.16968E-05
  rms(prec ) = 0.22439E-05
  weight for this iteration     100.00
  WARNING: grid for Broyden might be to small

 eigenvalues of (default mixing * dielectric matrix)
  average eigenvalue GAMMA=   2.5397
  9.2512  6.0867  3.7813  2.6938  2.4943  2.0644  1.8130  1.3221  1.0703  1.0703
  0.9605  0.9605  1.0049  0.9818

 Free energy of the ion-electron system (eV)
  ---------------------------------------------------
  alpha Z        PSCENC =         0.02803141
  Ewald energy   TEWEN  =       122.70055279
  -Hartree energ DENC   =      -516.20862696
  -exchange      EXHF   =         0.00000000
  -V(xc)+E(xc)   XCENC  =        33.66122154
  PAW double counting   =       565.80587188     -567.56035014
  entropy T*S    EENTRO =        -0.00000000
  eigenvalues    EBANDS =      -109.85845926
  atomic energy  EATOM  =       457.26981990
  Solvation  Ediel_sol  =         0.00000000
  ---------------------------------------------------
  free energy    TOTEN  =       -14.16193884 eV

  energy without entropy =      -14.16193884  energy(sigma->0) =      -14.16193884


--------------------------------------------------------------------------------------------------------




--------------------------------------- Iteration     17(  16)  ---------------------------------------


    POTLOK:  cpu time      0.0656: real time      0.0662
    SETDIJ:  cpu time      0.0901: real time      0.0907
     EDDAV:  cpu time      0.1689: real time      0.1707
       DOS:  cpu time      0.0004: real time      0.0004
    CHARGE:  cpu time      0.0637: real time      0.0649
    MIXING:  cpu time      0.0031: real time      0.0031
    --------------------------------------------
      LOOP:  cpu time      0.3919: real time      0.3960

 eigenvalue-minimisations  :    64
 total energy-change (2. order) :-0.1416212E-06  (-0.2671641E-10)
 number of electron       8.0000002 magnetization 
 augmentation part        0.6871112 magnetization 

 Broyden mixing:
  rms(total) = 0.42029E-05    rms(broyden)= 0.10620E-05
  rms(prec ) = 0.13693E-05
  weight for this iteration     100.00
  WARNING: grid for Broyden might be to small

 eigenvalues of (default mixing * dielectric matrix)
  average eigenvalue GAMMA=   2.6328
  9.5328  6.6304  4.4379  2.7074  2.7074  2.5505  2.0653  1.7983  1.0681  1.0681
  0.9581  0.9581  1.0483  1.0211  0.9403

 Free energy of the ion-electron system (eV)
  ---------------------------------------------------
  alpha Z        PSCENC =         0.02803141
  Ewald energy   TEWEN  =       122.70055279
  -Hartree energ DENC   =      -516.20860794
  -exchange      EXHF   =         0.00000000
  -V(xc)+E(xc)   XCENC  =        33.66122020
  PAW double counting   =       565.80584598     -567.56032328
  entropy T*S    EENTRO =        -0.00000000
  eigenvalues    EBANDS =      -109.85847805
  atomic energy  EATOM  =       457.26981990
  Solvation  Ediel_sol  =         0.00000000
  ---------------------------------------------------
  free energy    TOTEN  =       -14.16193899 eV

  energy without entropy =      -14.16193899  energy(sigma->0) =      -14.16193899


--------------------------------------------------------------------------------------------------------




--------------------------------------- Iteration     17(  17)  ---------------------------------------


    POTLOK:  cpu time      0.0659: real time      0.0665
    SETDIJ:  cpu time      0.0903: real time      0.0909
     EDDAV:  cpu time      0.3192: real time      0.3224
       DOS:  cpu time      0.0010: real time      0.0010
    CHARGE:  cpu time      0.0632: real time      0.0645
    MIXING:  cpu time      0.0035: real time      0.0036
    --------------------------------------------
      LOOP:  cpu time      0.5431: real time      0.5489

 eigenvalue-minimisations  :   128
 total energy-change (2. order) :-0.1199745E-06  (-0.3033307E-10)
 number of electron       8.0000002 magnetization 
 augmentation part        0.6871111 magnetization 

 Broyden mixing:
  rms(total) = 0.40890E-05    rms(broyden)= 0.43052E-06
  rms(prec ) = 0.55255E-06
  weight for this iteration     100.00
  WARNING: grid for Broyden might be to small

 eigenvalues of (default mixing * dielectric matrix)
  average eigenvalue GAMMA=   2.6050
  9.6499  6.9610  4.6991  3.1624  2.6083  2.4857  1.9596  1.8074  1.3185  1.0623
  1.0623  0.9575  0.9575  1.0450  1.0079  0.9352

 Free energy of the ion-electron system (eV)
  ---------------------------------------------------
  alpha Z        PSCENC =         0.02803141
  Ewald energy   TEWEN  =       122.70055279
  -Hartree energ DENC   =      -516.20863745
  -exchange      EXHF   =         0.00000000
  -V(xc)+E(xc)   XCENC  =        33.66122143
  PAW double counting   =       565.80590167     -567.56037875
  entropy T*S    EENTRO =        -0.00000000
  eigenvalues    EBANDS =      -109.85845011
  atomic energy  EATOM  =       457.26981990
  Solvation  Ediel_sol  =         0.00000000
  ---------------------------------------------------
  free energy    TOTEN  =       -14.16193911 eV

  energy without entropy =      -14.16193911  energy(sigma->0) =      -14.16193911


--------------------------------------------------------------------------------------------------------




--------------------------------------- Iteration     17(  18)  ---------------------------------------


    POTLOK:  cpu time      0.0667: real time      0.0673
    SETDIJ:  cpu time      0.0895: real time      0.0902
     EDDAV:  cpu time      0.1686: real time      0.1703
       DOS:  cpu time      0.0006: real time      0.0006
    CHARGE:  cpu time      0.0642: real time      0.0654
    MIXING:  cpu time      0.0041: real time      0.0042
    --------------------------------------------
      LOOP:  cpu time      0.3937: real time      0.3979

 eigenvalue-minimisations  :    64
 total energy-change (2. order) :-0.2248032E-07  (-0.1553602E-10)
 number of electron       8.0000002 magnetization 
 augmentation part        0.6871111 magnetization 

 Broyden mixing:
  rms(total) = 0.40807E-05    rms(broyden)= 0.34243E-06
  rms(prec ) = 0.41326E-06
  weight for this iteration     100.00
  WARNING: grid for Broyden might be to small

 eigenvalues of (default mixing * dielectric matrix)
  average eigenvalue GAMMA=   2.6913
  9.7766  7.3087  5.0824  3.8015  2.7813  2.5464  2.5464  1.9998  1.7939  1.0658
  1.0658  0.9583  0.9583  1.0754  1.0340  0.9980  0.9596

 Free energy of the ion-electron system (eV)
  ---------------------------------------------------
  alpha Z        PSCENC =         0.02803141
  Ewald energy   TEWEN  =       122.70055279
  -Hartree energ DENC   =      -516.20863435
  -exchange      EXHF   =         0.00000000
  -V(xc)+E(xc)   XCENC  =        33.66122132
  PAW double counting   =       565.80591242     -567.56038972
  entropy T*S    EENTRO =        -0.00000000
  eigenvalues    EBANDS =      -109.85845289
  atomic energy  EATOM  =       457.26981990
  Solvation  Ediel_sol  =         0.00000000
  ---------------------------------------------------
  free energy    TOTEN  =       -14.16193913 eV

  energy without entropy =      -14.16193913  energy(sigma->0) =      -14.16193913


--------------------------------------------------------------------------------------------------------




--------------------------------------- Iteration     17(  19)  ---------------------------------------


    POTLOK:  cpu time      0.0664: real time      0.0670
    SETDIJ:  cpu time      0.0899: real time      0.0905
     EDDAV:  cpu time      0.3179: real time      0.3210
       DOS:  cpu time      0.0008: real time      0.0008
    CHARGE:  cpu time      0.0639: real time      0.0651
    MIXING:  cpu time      0.0033: real time      0.0034
    --------------------------------------------
      LOOP:  cpu time      0.5422: real time      0.5479

 eigenvalue-minimisations  :   128
 total energy-change (2. order) :-0.1774788E-07  (-0.1540279E-10)
 number of electron       8.0000002 magnetization 
 augmentation part        0.6871111 magnetization 

 Broyden mixing:
  rms(total) = 0.40691E-05    rms(broyden)= 0.15097E-06
  rms(prec ) = 0.17914E-06
  weight for this iteration     100.00
  WARNING: grid for Broyden might be to small

 eigenvalues of (default mixing * dielectric matrix)
  average eigenvalue GAMMA=   2.6587
  9.8445  7.3243  5.3029  3.8567  2.9959  2.5916  2.3883  1.8540  1.8540  1.7623
  1.0662  1.0662  1.0907  0.9591  0.9591  1.0024  0.9691  0.9691

 Free energy of the ion-electron system (eV)
  ---------------------------------------------------
  alpha Z        PSCENC =         0.02803141
  Ewald energy   TEWEN  =       122.70055279
  -Hartree energ DENC   =      -516.20862978
  -exchange      EXHF   =         0.00000000
  -V(xc)+E(xc)   XCENC  =        33.66122112
  PAW double counting   =       565.80588814     -567.56036562
  entropy T*S    EENTRO =        -0.00000000
  eigenvalues    EBANDS =      -109.85845709
  atomic energy  EATOM  =       457.26981990
  Solvation  Ediel_sol  =         0.00000000
  ---------------------------------------------------
  free energy    TOTEN  =       -14.16193915 eV

  energy without entropy =      -14.16193915  energy(sigma->0) =      -14.16193915


--------------------------------------------------------------------------------------------------------




--------------------------------------- Iteration     17(  20)  ---------------------------------------


    POTLOK:  cpu time      0.0672: real time      0.0679
    SETDIJ:  cpu time      0.0900: real time      0.0907
     EDDAV:  cpu time      0.1673: real time      0.1690
       DOS:  cpu time      0.0005: real time      0.0005
    --------------------------------------------
      LOOP:  cpu time      0.3250: real time      0.3281

 eigenvalue-minimisations  :    64
 total energy-change (2. order) :-0.2372303E-08  (-0.1425171E-10)
 number of electron       8.0000002 magnetization 
 augmentation part        0.6871111 magnetization 

 Free energy of the ion-electron system (eV)
  ---------------------------------------------------
  alpha Z        PSCENC =         0.02803141
  Ewald energy   TEWEN  =       122.70055279
  -Hartree energ DENC   =      -516.20863035
  -exchange      EXHF   =         0.00000000
  -V(xc)+E(xc)   XCENC  =        33.66122112
  PAW double counting   =       565.80588101     -567.56035839
  entropy T*S    EENTRO =        -0.00000000
  eigenvalues    EBANDS =      -109.85845664
  atomic energy  EATOM  =       457.26981990
  Solvation  Ediel_sol  =         0.00000000
  ---------------------------------------------------
  free energy    TOTEN  =       -14.16193915 eV

  energy without entropy =      -14.16193915  energy(sigma->0) =      -14.16193915


--------------------------------------------------------------------------------------------------------




 average (electrostatic) potential at core
  the test charge radii are     0.5201  0.7215
  (the norm of the test charge is              1.0000)
       1 -45.0924       2 -44.7470       3 -80.7491



 E-fermi :  -7.1329     XC(G=0):  -0.1047     alpha+bet : -0.0163

 val. band max:       -7.1790512806   @ k =   0.0000   0.0000   0.0000
 cond. band min:      -1.0524572691   @ k =   0.0000   0.0000   0.0000
 fundamental gap:      6.1265940115
 Fermi energy:        -7.1328533834

 k-point     1 :       0.0000    0.0000    0.0000
  band No.  band energies     occupation 
      1     -25.3861      2.00000
      2     -13.1376      2.00000
      3      -9.2265      2.00000
      4      -7.1791      2.00000
      5      -1.0525      0.00000
      6       0.0118      0.00000
      7       0.2003      0.00000
      8       0.2972      0.00000
      9       0.3119      0.00000
     10       0.3406      0.00000
     11       0.3479      0.00000
     12       0.4628      0.00000
     13       0.4999      0.00000
     14       0.6019      0.00000
     15       0.6228      0.00000
     16       0.7078      0.00000
     17       0.7078      0.00000
     18       0.7131      0.00000
     19       0.7170      0.00000
     20       0.7213      0.00000
     21       0.7294      0.00000
     22       0.7310      0.00000
     23       0.7369      0.00000
     24       0.9349      0.00000
     25       0.9437      0.00000
     26       1.0201      0.00000
     27       1.0343      0.00000
     28       1.0812      0.00000
     29       1.0852      0.00000
     30       1.0877      0.00000
     31       1.1047      0.00000
     32       1.2545      0.00000


--------------------------------------------------------------------------------------------------------


 soft charge-density along one line, spin component           1
         0         1         2         3         4         5         6         7         8         9
 total charge-density along one line

 pseudopotential strength for first ion, spin component:           1
 -2.381  -4.113  -0.024   0.000   0.003
 -4.113  -7.019  -0.045   0.000   0.005
 -0.024  -0.045  -0.279  -0.000  -0.005
  0.000   0.000  -0.000  -0.325  -0.000
  0.003   0.005  -0.005  -0.000  -0.323
 total augmentation occupancy for first ion, spin component:           1
  4.059  -0.881   0.761  -0.000  -0.116
 -0.881   0.244  -0.159   0.000   0.030
  0.761  -0.159   0.144  -0.000  -0.020
 -0.000   0.000  -0.000   0.043  -0.000
 -0.116   0.030  -0.020  -0.000   0.031


------------------------ aborting loop because EDIFF is reached ----------------------------------------


    CHARGE:  cpu time      0.0643: real time      0.0650
    FORLOC:  cpu time      0.0030: real time      0.0030
    FORNL :  cpu time      0.2455: real time      0.2483
    STRESS:  cpu time      0.9248: real time      0.9353
    FORCOR:  cpu time      0.0556: real time      0.0560
    FORHAR:  cpu time      0.0145: real time      0.0146
    MIXING:  cpu time      0.0028: real time      0.0028
    OFIELD:  cpu time      0.0000: real time      0.0001

 ---------------------------------------------------------------------------------------------

         DFTD3 V3.0 Rev 1        
 Edisp (eV)   -0.00134

 E6    (eV) :    -0.0013
 E8    (eV) :    -0.0001
 % E8        :  5.24
    FORVDW:  cpu time      0.0077: real time      0.0078

  FORCE on cell =-STRESS in cart. coord.  units (eV):
  Direction    XX          YY          ZZ          XY          YZ          ZX
  --------------------------------------------------------------------------------------
  Alpha Z     0.02803     0.02803     0.02803
  Ewald      55.61683    88.89999   -21.81628    22.48886    -0.00009     0.00018
  Hartree   175.05042   180.23458   160.92363     4.04499    -0.00001     0.00003
  E(xc)     -36.36657   -36.21417   -36.81539     0.11698    -0.00000     0.00000
  Local    -317.07392  -345.56721  -249.03285   -20.37603     0.00008    -0.00016
  n-local   -30.69530   -30.50946   -30.89698     0.43017    -0.00000     0.00000
  augment     6.49337     5.92533     8.10563    -0.40559     0.00001    -0.00000
  Kinetic   145.90437   137.32996   168.67476    -6.62305     0.00002    -0.00006
  Fock        0.00000     0.00000     0.00000     0.00000     0.00000     0.00000
  vdW         0.00265     0.00794    -0.00000     0.00419     0.00000     0.00000
  -------------------------------------------------------------------------------------
  Total      -1.04012     0.13500    -0.82946    -0.31947    -0.00000     0.00000
  in kB      -0.20831     0.02704    -0.16612    -0.06398    -0.00000     0.00000
  external pressure =       -0.12 kB  Pullay stress =        0.00 kB


 VOLUME and BASIS-vectors are now :
 -----------------------------------------------------------------------------
  energy-cutoff  :      400.00
  volume of cell :     8000.00
      direct lattice vectors                 reciprocal lattice vectors
    20.000000000  0.000000000  0.000000000     0.050000000  0.000000000  0.000000000
     0.000000000 20.000000000  0.000000000     0.000000000  0.050000000  0.000000000
     0.000000000  0.000000000 20.000000000     0.000000000  0.000000000  0.050000000

  length of vectors
    20.000000000 20.000000000 20.000000000     0.050000000  0.050000000  0.050000000


 FORCES acting on ions
    electron-ion (+dipol)            ewald-force                    non-local-force                 convergence-correction
 -----------------------------------------------------------------------------------------------
   -.114E+02 0.892E+02 -.156E-03   0.128E+02 -.990E+02 0.174E-03   -.117E+01 0.880E+01 -.138E-04   0.311E-07 0.156E-06 0.504E-09
   -.776E+02 -.393E+02 -.161E-03   0.844E+02 0.427E+02 0.176E-03   -.716E+01 -.361E+01 -.154E-04   0.884E-08 -.969E-07 0.479E-09
   0.543E+02 -.314E+02 0.197E-03   -.972E+02 0.563E+02 -.349E-03   0.430E+02 -.237E+02 0.150E-03   0.799E-06 -.157E-05 0.706E-08
 -----------------------------------------------------------------------------------------------
   -.347E+02 0.185E+02 -.120E-03   0.000E+00 0.000E+00 0.407E-17   0.347E+02 -.185E+02 0.121E-03   0.839E-06 -.152E-05 0.805E-08


 POSITION                                       TOTAL-FORCE (eV/Angst)
 -----------------------------------------------------------------------------------
      9.80755      9.62347     10.00000         0.214550     -0.994477      0.000003
     10.54234     10.97263     10.00000        -0.368495     -0.220975     -0.000001
      9.65011     10.56390     10.00000         0.153945      1.215452     -0.000002
 -----------------------------------------------------------------------------------
    total drift:                               -0.008718      0.007263      0.000001


--------------------------------------------------------------------------------------------------------



  FREE ENERGIE OF THE ION-ELECTRON SYSTEM (eV)
  ---------------------------------------------------
  free  energy   TOTEN  =       -14.16327808 eV

  energy  without entropy=      -14.16327808  energy(sigma->0) =      -14.16327808

 d Force =-0.2915543E-02[-0.486E-01, 0.428E-01]  d Energy =-0.1034499E-02-0.188E-02
 d Force =-0.2148346E+01[-0.225E+01,-0.204E+01]  d Ewald  =-0.2144147E+01-0.420E-02


--------------------------------------------------------------------------------------------------------


    POTLOK:  cpu time      0.1598: real time      0.1610


--------------------------------------------------------------------------------------------------------


 Finite differences progress:
  Degree of freedom:   8/  9
  Displacement:        2/  2
  Total:              16/ 18
    WAVPRE:  cpu time      0.0097: real time      0.0111
    FEWALD:  cpu time      0.0003: real time      0.0003
    ORTHCH:  cpu time      0.0146: real time      0.0148
     LOOP+:  cpu time     12.6931: real time     12.8382


--------------------------------------- Ionic step       18  -------------------------------------------




--------------------------------------- Iteration     18(   1)  ---------------------------------------


    POTLOK:  cpu time      0.0627: real time      0.0640
    SETDIJ:  cpu time      0.0901: real time      0.0907
     EDDAV:  cpu time      0.1679: real time      0.1697
       DOS:  cpu time      0.0007: real time      0.0007
    CHARGE:  cpu time      0.0642: real time      0.0654
    MIXING:  cpu time      0.0029: real time      0.0029
    --------------------------------------------
      LOOP:  cpu time      0.3884: real time      0.3935

 eigenvalue-minimisations  :    64
 total energy-change (2. order) :-0.9709431E-02  (-0.4626611E+00)
 number of electron       7.9999999 magnetization 
 augmentation part        0.6816716 magnetization 

 Broyden mixing:
  rms(total) = 0.41565E-01    rms(broyden)= 0.40153E-01
  rms(prec ) = 0.41892E-01
  weight for this iteration     100.00

 Free energy of the ion-electron system (eV)
  ---------------------------------------------------
  alpha Z        PSCENC =         0.02803141
  Ewald energy   TEWEN  =       121.56475441
  -Hartree energ DENC   =      -515.72316212
  -exchange      EXHF   =         0.00000000
  -V(xc)+E(xc)   XCENC  =        33.64047889
  PAW double counting   =       565.80588789     -567.56036523
  entropy T*S    EENTRO =        -0.00000000
  eigenvalues    EBANDS =      -109.19709373
  atomic energy  EATOM  =       457.26981990
  Solvation  Ediel_sol  =         0.00000000
  ---------------------------------------------------
  free energy    TOTEN  =       -14.17164858 eV

  energy without entropy =      -14.17164858  energy(sigma->0) =      -14.17164858


--------------------------------------------------------------------------------------------------------




--------------------------------------- Iteration     18(   2)  ---------------------------------------


    POTLOK:  cpu time      0.0647: real time      0.0653
    SETDIJ:  cpu time      0.0903: real time      0.0909
     EDDAV:  cpu time      0.3180: real time      0.3211
       DOS:  cpu time      0.0006: real time      0.0007
    CHARGE:  cpu time      0.0632: real time      0.0644
    MIXING:  cpu time      0.0033: real time      0.0033
    --------------------------------------------
      LOOP:  cpu time      0.5402: real time      0.5457

 eigenvalue-minimisations  :   128
 total energy-change (2. order) :-0.1268200E-02  (-0.5151339E-02)
 number of electron       7.9999999 magnetization 
 augmentation part        0.6841110 magnetization 

 Broyden mixing:
  rms(total) = 0.21015E-01    rms(broyden)= 0.20896E-01
  rms(prec ) = 0.21929E-01
  weight for this iteration     100.00

 eigenvalues of (default mixing * dielectric matrix)
  average eigenvalue GAMMA=   1.2036
  1.2036

 Free energy of the ion-electron system (eV)
  ---------------------------------------------------
  alpha Z        PSCENC =         0.02803141
  Ewald energy   TEWEN  =       121.56475441
  -Hartree energ DENC   =      -515.32448974
  -exchange      EXHF   =         0.00000000
  -V(xc)+E(xc)   XCENC  =        33.61803767
  PAW double counting   =       564.24827831     -565.99714638
  entropy T*S    EENTRO =        -0.00000000
  eigenvalues    EBANDS =      -109.58020236
  atomic energy  EATOM  =       457.26981990
  Solvation  Ediel_sol  =         0.00000000
  ---------------------------------------------------
  free energy    TOTEN  =       -14.17291678 eV

  energy without entropy =      -14.17291678  energy(sigma->0) =      -14.17291678


--------------------------------------------------------------------------------------------------------




--------------------------------------- Iteration     18(   3)  ---------------------------------------


    POTLOK:  cpu time      0.0645: real time      0.0651
    SETDIJ:  cpu time      0.0900: real time      0.0907
     EDDAV:  cpu time      0.1695: real time      0.1714
       DOS:  cpu time      0.0008: real time      0.0008
    CHARGE:  cpu time      0.0634: real time      0.0646
    MIXING:  cpu time      0.0030: real time      0.0037
    --------------------------------------------
      LOOP:  cpu time      0.3912: real time      0.3963

 eigenvalue-minimisations  :    64
 total energy-change (2. order) :-0.6428654E-04  (-0.1419228E-03)
 number of electron       7.9999999 magnetization 
 augmentation part        0.6835298 magnetization 

 Broyden mixing:
  rms(total) = 0.94619E-02    rms(broyden)= 0.94453E-02
  rms(prec ) = 0.98540E-02
  weight for this iteration     100.00

 eigenvalues of (default mixing * dielectric matrix)
  average eigenvalue GAMMA=   1.5434
  0.9543  2.1325

 Free energy of the ion-electron system (eV)
  ---------------------------------------------------
  alpha Z        PSCENC =         0.02803141
  Ewald energy   TEWEN  =       121.56475441
  -Hartree energ DENC   =      -515.36334095
  -exchange      EXHF   =         0.00000000
  -V(xc)+E(xc)   XCENC  =        33.61938358
  PAW double counting   =       563.08476232     -564.83196410
  entropy T*S    EENTRO =        -0.00000000
  eigenvalues    EBANDS =      -109.54442764
  atomic energy  EATOM  =       457.26981990
  Solvation  Ediel_sol  =         0.00000000
  ---------------------------------------------------
  free energy    TOTEN  =       -14.17298106 eV

  energy without entropy =      -14.17298106  energy(sigma->0) =      -14.17298106


--------------------------------------------------------------------------------------------------------




--------------------------------------- Iteration     18(   4)  ---------------------------------------


    POTLOK:  cpu time      0.0626: real time      0.0631
    SETDIJ:  cpu time      0.0908: real time      0.0914
     EDDAV:  cpu time      0.3147: real time      0.3178
       DOS:  cpu time      0.0007: real time      0.0007
    CHARGE:  cpu time      0.0640: real time      0.0652
    MIXING:  cpu time      0.0030: real time      0.0030
    --------------------------------------------
      LOOP:  cpu time      0.5356: real time      0.5411

 eigenvalue-minimisations  :   128
 total energy-change (2. order) :-0.5828183E-03  (-0.8229392E-04)
 number of electron       7.9999999 magnetization 
 augmentation part        0.6835409 magnetization 

 Broyden mixing:
  rms(total) = 0.22005E-02    rms(broyden)= 0.21879E-02
  rms(prec ) = 0.23709E-02
  weight for this iteration     100.00

 eigenvalues of (default mixing * dielectric matrix)
  average eigenvalue GAMMA=   1.4487
  2.1537  1.0961  1.0961

 Free energy of the ion-electron system (eV)
  ---------------------------------------------------
  alpha Z        PSCENC =         0.02803141
  Ewald energy   TEWEN  =       121.56475441
  -Hartree energ DENC   =      -515.32544295
  -exchange      EXHF   =         0.00000000
  -V(xc)+E(xc)   XCENC  =        33.61666414
  PAW double counting   =       561.87631267     -563.62049038
  entropy T*S    EENTRO =        -0.00000000
  eigenvalues    EBANDS =      -109.58321308
  atomic energy  EATOM  =       457.26981990
  Solvation  Ediel_sol  =         0.00000000
  ---------------------------------------------------
  free energy    TOTEN  =       -14.17356388 eV

  energy without entropy =      -14.17356388  energy(sigma->0) =      -14.17356388


--------------------------------------------------------------------------------------------------------




--------------------------------------- Iteration     18(   5)  ---------------------------------------


    POTLOK:  cpu time      0.0638: real time      0.0648
    SETDIJ:  cpu time      0.0900: real time      0.0906
     EDDAV:  cpu time      0.2374: real time      0.2399
       DOS:  cpu time      0.0007: real time      0.0007
    CHARGE:  cpu time      0.0649: real time      0.0661
    MIXING:  cpu time      0.0029: real time      0.0030
    --------------------------------------------
      LOOP:  cpu time      0.4597: real time      0.4651

 eigenvalue-minimisations  :    96
 total energy-change (2. order) :-0.4790258E-04  (-0.5747554E-05)
 number of electron       7.9999999 magnetization 
 augmentation part        0.6836342 magnetization 

 Broyden mixing:
  rms(total) = 0.10972E-02    rms(broyden)= 0.10955E-02
  rms(prec ) = 0.12427E-02
  weight for this iteration     100.00

 eigenvalues of (default mixing * dielectric matrix)
  average eigenvalue GAMMA=   1.5803
  2.4359  0.9567  1.4643  1.4643

 Free energy of the ion-electron system (eV)
  ---------------------------------------------------
  alpha Z        PSCENC =         0.02803141
  Ewald energy   TEWEN  =       121.56475441
  -Hartree energ DENC   =      -515.31245693
  -exchange      EXHF   =         0.00000000
  -V(xc)+E(xc)   XCENC  =        33.61597511
  PAW double counting   =       561.68755688     -563.43123389
  entropy T*S    EENTRO =        -0.00000000
  eigenvalues    EBANDS =      -109.59605868
  atomic energy  EATOM  =       457.26981990
  Solvation  Ediel_sol  =         0.00000000
  ---------------------------------------------------
  free energy    TOTEN  =       -14.17361178 eV

  energy without entropy =      -14.17361178  energy(sigma->0) =      -14.17361178


--------------------------------------------------------------------------------------------------------




--------------------------------------- Iteration     18(   6)  ---------------------------------------


    POTLOK:  cpu time      0.0633: real time      0.0643
    SETDIJ:  cpu time      0.0900: real time      0.0906
     EDDAV:  cpu time      0.2364: real time      0.2387
       DOS:  cpu time      0.0007: real time      0.0007
    CHARGE:  cpu time      0.0642: real time      0.0654
    MIXING:  cpu time      0.0028: real time      0.0028
    --------------------------------------------
      LOOP:  cpu time      0.4574: real time      0.4626

 eigenvalue-minimisations  :    96
 total energy-change (2. order) :-0.4270553E-04  (-0.7473742E-06)
 number of electron       7.9999999 magnetization 
 augmentation part        0.6836134 magnetization 

 Broyden mixing:
  rms(total) = 0.25867E-03    rms(broyden)= 0.25589E-03
  rms(prec ) = 0.44852E-03
  weight for this iteration     100.00

 eigenvalues of (default mixing * dielectric matrix)
  average eigenvalue GAMMA=   1.5404
  2.5601  1.8658  0.9725  1.1518  1.1518

 Free energy of the ion-electron system (eV)
  ---------------------------------------------------
  alpha Z        PSCENC =         0.02803141
  Ewald energy   TEWEN  =       121.56475441
  -Hartree energ DENC   =      -515.30970004
  -exchange      EXHF   =         0.00000000
  -V(xc)+E(xc)   XCENC  =        33.61586373
  PAW double counting   =       561.55107875     -563.29469414
  entropy T*S    EENTRO =        -0.00000000
  eigenvalues    EBANDS =      -109.59880852
  atomic energy  EATOM  =       457.26981990
  Solvation  Ediel_sol  =         0.00000000
  ---------------------------------------------------
  free energy    TOTEN  =       -14.17365449 eV

  energy without entropy =      -14.17365449  energy(sigma->0) =      -14.17365449


--------------------------------------------------------------------------------------------------------




--------------------------------------- Iteration     18(   7)  ---------------------------------------


    POTLOK:  cpu time      0.0702: real time      0.0708
    SETDIJ:  cpu time      0.0897: real time      0.0903
     EDDAV:  cpu time      0.2407: real time      0.2433
       DOS:  cpu time      0.0006: real time      0.0006
    CHARGE:  cpu time      0.0644: real time      0.0656
    MIXING:  cpu time      0.0024: real time      0.0024
    --------------------------------------------
      LOOP:  cpu time      0.4680: real time      0.4730

 eigenvalue-minimisations  :    96
 total energy-change (2. order) :-0.3001097E-04  (-0.2262845E-06)
 number of electron       7.9999999 magnetization 
 augmentation part        0.6836330 magnetization 

 Broyden mixing:
  rms(total) = 0.17379E-03    rms(broyden)= 0.16974E-03
  rms(prec ) = 0.33148E-03
  weight for this iteration     100.00

 eigenvalues of (default mixing * dielectric matrix)
  average eigenvalue GAMMA=   1.6275
  2.5899  2.2827  0.9846  0.9846  1.4617  1.4617

 Free energy of the ion-electron system (eV)
  ---------------------------------------------------
  alpha Z        PSCENC =         0.02803141
  Ewald energy   TEWEN  =       121.56475441
  -Hartree energ DENC   =      -515.30457802
  -exchange      EXHF   =         0.00000000
  -V(xc)+E(xc)   XCENC  =        33.61562998
  PAW double counting   =       561.52935814     -563.27293307
  entropy T*S    EENTRO =        -0.00000000
  eigenvalues    EBANDS =      -109.60376725
  atomic energy  EATOM  =       457.26981990
  Solvation  Ediel_sol  =         0.00000000
  ---------------------------------------------------
  free energy    TOTEN  =       -14.17368450 eV

  energy without entropy =      -14.17368450  energy(sigma->0) =      -14.17368450


--------------------------------------------------------------------------------------------------------




--------------------------------------- Iteration     18(   8)  ---------------------------------------


    POTLOK:  cpu time      0.0642: real time      0.0647
    SETDIJ:  cpu time      0.0902: real time      0.0908
     EDDAV:  cpu time      0.1692: real time      0.1710
       DOS:  cpu time      0.0006: real time      0.0006
    CHARGE:  cpu time      0.0644: real time      0.0657
    MIXING:  cpu time      0.0025: real time      0.0025
    --------------------------------------------
      LOOP:  cpu time      0.3910: real time      0.3953

 eigenvalue-minimisations  :    64
 total energy-change (2. order) :-0.4988992E-04  (-0.5953758E-06)
 number of electron       7.9999999 magnetization 
 augmentation part        0.6836235 magnetization 

 Broyden mixing:
  rms(total) = 0.81577E-04    rms(broyden)= 0.72647E-04
  rms(prec ) = 0.16990E-03
  weight for this iteration     100.00
  WARNING: grid for Broyden might be to small

 eigenvalues of (default mixing * dielectric matrix)
  average eigenvalue GAMMA=   1.8289
  4.0958  2.5561  1.7021  0.9647  0.9647  1.3387  1.1803

 Free energy of the ion-electron system (eV)
  ---------------------------------------------------
  alpha Z        PSCENC =         0.02803141
  Ewald energy   TEWEN  =       121.56475441
  -Hartree energ DENC   =      -515.30177324
  -exchange      EXHF   =         0.00000000
  -V(xc)+E(xc)   XCENC  =        33.61555492
  PAW double counting   =       561.53746070     -563.28106530
  entropy T*S    EENTRO =        -0.00000000
  eigenvalues    EBANDS =      -109.60651721
  atomic energy  EATOM  =       457.26981990
  Solvation  Ediel_sol  =         0.00000000
  ---------------------------------------------------
  free energy    TOTEN  =       -14.17373439 eV

  energy without entropy =      -14.17373439  energy(sigma->0) =      -14.17373439


--------------------------------------------------------------------------------------------------------




--------------------------------------- Iteration     18(   9)  ---------------------------------------


    POTLOK:  cpu time      0.0646: real time      0.0652
    SETDIJ:  cpu time      0.0908: real time      0.0915
     EDDAV:  cpu time      0.3160: real time      0.3191
       DOS:  cpu time      0.0006: real time      0.0006
    CHARGE:  cpu time      0.0644: real time      0.0656
    MIXING:  cpu time      0.0023: real time      0.0024
    --------------------------------------------
      LOOP:  cpu time      0.5388: real time      0.5443

 eigenvalue-minimisations  :   128
 total energy-change (2. order) :-0.2949073E-04  (-0.3583851E-06)
 number of electron       7.9999999 magnetization 
 augmentation part        0.6836235 magnetization 

 Broyden mixing:
  rms(total) = 0.71662E-04    rms(broyden)= 0.61343E-04
  rms(prec ) = 0.10043E-03
  weight for this iteration     100.00
  WARNING: grid for Broyden might be to small

 eigenvalues of (default mixing * dielectric matrix)
  average eigenvalue GAMMA=   2.1386
  6.0738  2.5978  2.3532  1.7208  1.3701  0.9759  0.9759  1.0414

 Free energy of the ion-electron system (eV)
  ---------------------------------------------------
  alpha Z        PSCENC =         0.02803141
  Ewald energy   TEWEN  =       121.56475441
  -Hartree energ DENC   =      -515.29903318
  -exchange      EXHF   =         0.00000000
  -V(xc)+E(xc)   XCENC  =        33.61545060
  PAW double counting   =       561.54111485     -563.28471247
  entropy T*S    EENTRO =        -0.00000000
  eigenvalues    EBANDS =      -109.60918940
  atomic energy  EATOM  =       457.26981990
  Solvation  Ediel_sol  =         0.00000000
  ---------------------------------------------------
  free energy    TOTEN  =       -14.17376388 eV

  energy without entropy =      -14.17376388  energy(sigma->0) =      -14.17376388


--------------------------------------------------------------------------------------------------------




--------------------------------------- Iteration     18(  10)  ---------------------------------------


    POTLOK:  cpu time      0.0646: real time      0.0651
    SETDIJ:  cpu time      0.0897: real time      0.0904
     EDDAV:  cpu time      0.2376: real time      0.2402
       DOS:  cpu time      0.0005: real time      0.0005
    CHARGE:  cpu time      0.0647: real time      0.0658
    MIXING:  cpu time      0.0029: real time      0.0029
    --------------------------------------------
      LOOP:  cpu time      0.4600: real time      0.4650

 eigenvalue-minimisations  :    96
 total energy-change (2. order) :-0.1873709E-04  (-0.1285862E-06)
 number of electron       7.9999999 magnetization 
 augmentation part        0.6836259 magnetization 

 Broyden mixing:
  rms(total) = 0.45847E-04    rms(broyden)= 0.27192E-04
  rms(prec ) = 0.46271E-04
  weight for this iteration     100.00
  WARNING: grid for Broyden might be to small

 eigenvalues of (default mixing * dielectric matrix)
  average eigenvalue GAMMA=   2.1283
  6.5534  2.7767  2.5013  1.5635  1.5635  0.9875  0.9875  1.0246  1.1965

 Free energy of the ion-electron system (eV)
  ---------------------------------------------------
  alpha Z        PSCENC =         0.02803141
  Ewald energy   TEWEN  =       121.56475441
  -Hartree energ DENC   =      -515.29798883
  -exchange      EXHF   =         0.00000000
  -V(xc)+E(xc)   XCENC  =        33.61539414
  PAW double counting   =       561.54052217     -563.28410966
  entropy T*S    EENTRO =        -0.00000000
  eigenvalues    EBANDS =      -109.61020617
  atomic energy  EATOM  =       457.26981990
  Solvation  Ediel_sol  =         0.00000000
  ---------------------------------------------------
  free energy    TOTEN  =       -14.17378262 eV

  energy without entropy =      -14.17378262  energy(sigma->0) =      -14.17378262


--------------------------------------------------------------------------------------------------------




--------------------------------------- Iteration     18(  11)  ---------------------------------------


    POTLOK:  cpu time      0.0658: real time      0.0664
    SETDIJ:  cpu time      0.0903: real time      0.0910
     EDDAV:  cpu time      0.3140: real time      0.3172
       DOS:  cpu time      0.0007: real time      0.0007
    CHARGE:  cpu time      0.0641: real time      0.0653
    MIXING:  cpu time      0.0030: real time      0.0030
    --------------------------------------------
      LOOP:  cpu time      0.5379: real time      0.5436

 eigenvalue-minimisations  :    96
 total energy-change (2. order) :-0.6518567E-05  (-0.1114809E-07)
 number of electron       7.9999999 magnetization 
 augmentation part        0.6836236 magnetization 

 Broyden mixing:
  rms(total) = 0.39938E-04    rms(broyden)= 0.15257E-04
  rms(prec ) = 0.27339E-04
  weight for this iteration     100.00
  WARNING: grid for Broyden might be to small

 eigenvalues of (default mixing * dielectric matrix)
  average eigenvalue GAMMA=   2.3158
  7.5438  3.7239  2.5883  2.2508  1.6374  1.4487  1.0577  0.9805  0.9805  0.9467

 Free energy of the ion-electron system (eV)
  ---------------------------------------------------
  alpha Z        PSCENC =         0.02803141
  Ewald energy   TEWEN  =       121.56475441
  -Hartree energ DENC   =      -515.29862779
  -exchange      EXHF   =         0.00000000
  -V(xc)+E(xc)   XCENC  =        33.61542289
  PAW double counting   =       561.54055892     -563.28414791
  entropy T*S    EENTRO =        -0.00000000
  eigenvalues    EBANDS =      -109.60960097
  atomic energy  EATOM  =       457.26981990
  Solvation  Ediel_sol  =         0.00000000
  ---------------------------------------------------
  free energy    TOTEN  =       -14.17378914 eV

  energy without entropy =      -14.17378914  energy(sigma->0) =      -14.17378914


--------------------------------------------------------------------------------------------------------




--------------------------------------- Iteration     18(  12)  ---------------------------------------


    POTLOK:  cpu time      0.0649: real time      0.0654
    SETDIJ:  cpu time      0.0902: real time      0.0909
     EDDAV:  cpu time      0.2348: real time      0.2373
       DOS:  cpu time      0.0012: real time      0.0018
    CHARGE:  cpu time      0.0645: real time      0.0652
    MIXING:  cpu time      0.0028: real time      0.0028
    --------------------------------------------
      LOOP:  cpu time      0.4585: real time      0.4634

 eigenvalue-minimisations  :    96
 total energy-change (2. order) :-0.4284587E-05  (-0.8887895E-08)
 number of electron       7.9999999 magnetization 
 augmentation part        0.6836247 magnetization 

 Broyden mixing:
  rms(total) = 0.37824E-04    rms(broyden)= 0.82922E-05
  rms(prec ) = 0.13719E-04
  weight for this iteration     100.00
  WARNING: grid for Broyden might be to small

 eigenvalues of (default mixing * dielectric matrix)
  average eigenvalue GAMMA=   2.3143
  7.9755  4.1220  2.5300  2.3023  1.5524  1.5524  1.3892  0.9892  0.9892  0.9525
  1.1030

 Free energy of the ion-electron system (eV)
  ---------------------------------------------------
  alpha Z        PSCENC =         0.02803141
  Ewald energy   TEWEN  =       121.56475441
  -Hartree energ DENC   =      -515.29868001
  -exchange      EXHF   =         0.00000000
  -V(xc)+E(xc)   XCENC  =        33.61542391
  PAW double counting   =       561.53916186     -563.28274858
  entropy T*S    EENTRO =        -0.00000000
  eigenvalues    EBANDS =      -109.60955633
  atomic energy  EATOM  =       457.26981990
  Solvation  Ediel_sol  =         0.00000000
  ---------------------------------------------------
  free energy    TOTEN  =       -14.17379342 eV

  energy without entropy =      -14.17379342  energy(sigma->0) =      -14.17379342


--------------------------------------------------------------------------------------------------------




--------------------------------------- Iteration     18(  13)  ---------------------------------------


    POTLOK:  cpu time      0.0645: real time      0.0650
    SETDIJ:  cpu time      0.0901: real time      0.0907
     EDDAV:  cpu time      0.3147: real time      0.3179
       DOS:  cpu time      0.0008: real time      0.0008
    CHARGE:  cpu time      0.0646: real time      0.0658
    MIXING:  cpu time      0.0030: real time      0.0030
    --------------------------------------------
      LOOP:  cpu time      0.5376: real time      0.5432

 eigenvalue-minimisations  :   128
 total energy-change (2. order) :-0.1478856E-05  (-0.7441479E-09)
 number of electron       7.9999999 magnetization 
 augmentation part        0.6836245 magnetization 

 Broyden mixing:
  rms(total) = 0.37195E-04    rms(broyden)= 0.46522E-05
  rms(prec ) = 0.81974E-05
  weight for this iteration     100.00
  WARNING: grid for Broyden might be to small

 eigenvalues of (default mixing * dielectric matrix)
  average eigenvalue GAMMA=   2.4608
  8.7217  5.0719  2.9734  2.5499  2.0863  1.6041  1.4674  0.9834  0.9834  0.9746
  1.0565  1.0565

 Free energy of the ion-electron system (eV)
  ---------------------------------------------------
  alpha Z        PSCENC =         0.02803141
  Ewald energy   TEWEN  =       121.56475441
  -Hartree energ DENC   =      -515.29869355
  -exchange      EXHF   =         0.00000000
  -V(xc)+E(xc)   XCENC  =        33.61542307
  PAW double counting   =       561.53977727     -563.28336845
  entropy T*S    EENTRO =        -0.00000000
  eigenvalues    EBANDS =      -109.60953897
  atomic energy  EATOM  =       457.26981990
  Solvation  Ediel_sol  =         0.00000000
  ---------------------------------------------------
  free energy    TOTEN  =       -14.17379490 eV

  energy without entropy =      -14.17379490  energy(sigma->0) =      -14.17379490


--------------------------------------------------------------------------------------------------------




--------------------------------------- Iteration     18(  14)  ---------------------------------------


    POTLOK:  cpu time      0.0653: real time      0.0665
    SETDIJ:  cpu time      0.0897: real time      0.0904
     EDDAV:  cpu time      0.3046: real time      0.3077
       DOS:  cpu time      0.0006: real time      0.0011
    CHARGE:  cpu time      0.0858: real time      0.0867
    MIXING:  cpu time      0.0029: real time      0.0030
    --------------------------------------------
      LOOP:  cpu time      0.5490: real time      0.5553

 eigenvalue-minimisations  :    96
 total energy-change (2. order) :-0.1048690E-05  (-0.7616272E-09)
 number of electron       7.9999999 magnetization 
 augmentation part        0.6836246 magnetization 

 Broyden mixing:
  rms(total) = 0.36986E-04    rms(broyden)= 0.24712E-05
  rms(prec ) = 0.40391E-05
  weight for this iteration     100.00
  WARNING: grid for Broyden might be to small

 eigenvalues of (default mixing * dielectric matrix)
  average eigenvalue GAMMA=   2.5511
  9.0558  5.6765  3.4523  2.5695  2.3769  1.9040  1.6296  1.4720  1.1015  0.9806
  0.9806  0.9828  0.9828

 Free energy of the ion-electron system (eV)
  ---------------------------------------------------
  alpha Z        PSCENC =         0.02803141
  Ewald energy   TEWEN  =       121.56475441
  -Hartree energ DENC   =      -515.29864595
  -exchange      EXHF   =         0.00000000
  -V(xc)+E(xc)   XCENC  =        33.61541973
  PAW double counting   =       561.53976188     -563.28335326
  entropy T*S    EENTRO =        -0.00000000
  eigenvalues    EBANDS =      -109.60958408
  atomic energy  EATOM  =       457.26981990
  Solvation  Ediel_sol  =         0.00000000
  ---------------------------------------------------
  free energy    TOTEN  =       -14.17379595 eV

  energy without entropy =      -14.17379595  energy(sigma->0) =      -14.17379595


--------------------------------------------------------------------------------------------------------




--------------------------------------- Iteration     18(  15)  ---------------------------------------


    POTLOK:  cpu time      0.0933: real time      0.0940
    SETDIJ:  cpu time      0.1484: real time      0.1494
     EDDAV:  cpu time      0.3159: real time      0.3190
       DOS:  cpu time      0.0007: real time      0.0007
    CHARGE:  cpu time      0.0640: real time      0.0652
    MIXING:  cpu time      0.0030: real time      0.0031
    --------------------------------------------
      LOOP:  cpu time      0.6253: real time      0.6313

 eigenvalue-minimisations  :   128
 total energy-change (2. order) :-0.5386484E-06  (-0.3288729E-09)
 number of electron       7.9999999 magnetization 
 augmentation part        0.6836246 magnetization 

 Broyden mixing:
  rms(total) = 0.36925E-04    rms(broyden)= 0.12655E-05
  rms(prec ) = 0.17955E-05
  weight for this iteration     100.00
  WARNING: grid for Broyden might be to small

 eigenvalues of (default mixing * dielectric matrix)
  average eigenvalue GAMMA=   2.5570
  9.3542  6.1640  3.8448  2.7338  2.5229  2.0442  1.5313  1.5313  1.0939  1.0939
  0.9818  0.9818  0.9836  0.9362

 Free energy of the ion-electron system (eV)
  ---------------------------------------------------
  alpha Z        PSCENC =         0.02803141
  Ewald energy   TEWEN  =       121.56475441
  -Hartree energ DENC   =      -515.29863644
  -exchange      EXHF   =         0.00000000
  -V(xc)+E(xc)   XCENC  =        33.61541882
  PAW double counting   =       561.53975928     -563.28334842
  entropy T*S    EENTRO =        -0.00000000
  eigenvalues    EBANDS =      -109.60959544
  atomic energy  EATOM  =       457.26981990
  Solvation  Ediel_sol  =         0.00000000
  ---------------------------------------------------
  free energy    TOTEN  =       -14.17379649 eV

  energy without entropy =      -14.17379649  energy(sigma->0) =      -14.17379649


--------------------------------------------------------------------------------------------------------




--------------------------------------- Iteration     18(  16)  ---------------------------------------


    POTLOK:  cpu time      0.0668: real time      0.0673
    SETDIJ:  cpu time      0.0899: real time      0.0905
     EDDAV:  cpu time      0.1676: real time      0.1694
       DOS:  cpu time      0.0006: real time      0.0006
    CHARGE:  cpu time      0.0637: real time      0.0650
    MIXING:  cpu time      0.0031: real time      0.0031
    --------------------------------------------
      LOOP:  cpu time      0.3916: real time      0.3959

 eigenvalue-minimisations  :    64
 total energy-change (2. order) :-0.1269643E-06  (-0.3014478E-10)
 number of electron       7.9999999 magnetization 
 augmentation part        0.6836246 magnetization 

 Broyden mixing:
  rms(total) = 0.36909E-04    rms(broyden)= 0.66049E-06
  rms(prec ) = 0.10138E-05
  weight for this iteration     100.00
  WARNING: grid for Broyden might be to small

 eigenvalues of (default mixing * dielectric matrix)
  average eigenvalue GAMMA=   2.6839
  9.6243  6.9204  4.5515  3.0397  2.5847  2.4295  1.9746  1.5357  1.5357  1.1183
  0.9817  0.9817  0.9555  0.9983  1.0263

 Free energy of the ion-electron system (eV)
  ---------------------------------------------------
  alpha Z        PSCENC =         0.02803141
  Ewald energy   TEWEN  =       121.56475441
  -Hartree energ DENC   =      -515.29863443
  -exchange      EXHF   =         0.00000000
  -V(xc)+E(xc)   XCENC  =        33.61541875
  PAW double counting   =       561.53975424     -563.28334353
  entropy T*S    EENTRO =        -0.00000000
  eigenvalues    EBANDS =      -109.60959737
  atomic energy  EATOM  =       457.26981990
  Solvation  Ediel_sol  =         0.00000000
  ---------------------------------------------------
  free energy    TOTEN  =       -14.17379661 eV

  energy without entropy =      -14.17379661  energy(sigma->0) =      -14.17379661


--------------------------------------------------------------------------------------------------------




--------------------------------------- Iteration     18(  17)  ---------------------------------------


    POTLOK:  cpu time      0.0710: real time      0.0716
    SETDIJ:  cpu time      0.0899: real time      0.0905
     EDDAV:  cpu time      0.3139: real time      0.3173
       DOS:  cpu time      0.0008: real time      0.0008
    CHARGE:  cpu time      0.0645: real time      0.0658
    MIXING:  cpu time      0.0041: real time      0.0042
    --------------------------------------------
      LOOP:  cpu time      0.5442: real time      0.5501

 eigenvalue-minimisations  :   128
 total energy-change (2. order) :-0.1222307E-06  (-0.3019274E-10)
 number of electron       7.9999999 magnetization 
 augmentation part        0.6836246 magnetization 

 Broyden mixing:
  rms(total) = 0.36905E-04    rms(broyden)= 0.36554E-06
  rms(prec ) = 0.47391E-06
  weight for this iteration     100.00
  WARNING: grid for Broyden might be to small

 eigenvalues of (default mixing * dielectric matrix)
  average eigenvalue GAMMA=   2.6739
  9.7491  7.0672  4.8167  3.1244  2.5756  2.5756  2.0404  1.5943  1.5796  1.5796
  1.1300  0.9820  0.9820  0.9655  0.9928  1.0272

 Free energy of the ion-electron system (eV)
  ---------------------------------------------------
  alpha Z        PSCENC =         0.02803141
  Ewald energy   TEWEN  =       121.56475441
  -Hartree energ DENC   =      -515.29862455
  -exchange      EXHF   =         0.00000000
  -V(xc)+E(xc)   XCENC  =        33.61541843
  PAW double counting   =       561.53972617     -563.28331610
  entropy T*S    EENTRO =        -0.00000000
  eigenvalues    EBANDS =      -109.60960641
  atomic energy  EATOM  =       457.26981990
  Solvation  Ediel_sol  =         0.00000000
  ---------------------------------------------------
  free energy    TOTEN  =       -14.17379674 eV

  energy without entropy =      -14.17379674  energy(sigma->0) =      -14.17379674


--------------------------------------------------------------------------------------------------------




--------------------------------------- Iteration     18(  18)  ---------------------------------------


    POTLOK:  cpu time      0.0665: real time      0.0671
    SETDIJ:  cpu time      0.0896: real time      0.0903
     EDDAV:  cpu time      0.1695: real time      0.1713
       DOS:  cpu time      0.0007: real time      0.0007
    CHARGE:  cpu time      0.0639: real time      0.0651
    MIXING:  cpu time      0.0034: real time      0.0034
    --------------------------------------------
      LOOP:  cpu time      0.3937: real time      0.3979

 eigenvalue-minimisations  :    64
 total energy-change (2. order) :-0.2564741E-07  (-0.1073097E-10)
 number of electron       7.9999999 magnetization 
 augmentation part        0.6836246 magnetization 

 Broyden mixing:
  rms(total) = 0.36903E-04    rms(broyden)= 0.20759E-06
  rms(prec ) = 0.26864E-06
  weight for this iteration     100.00
  WARNING: grid for Broyden might be to small

 eigenvalues of (default mixing * dielectric matrix)
  average eigenvalue GAMMA=   2.7076
  9.8448  7.3319  5.1959  3.8172  2.7676  2.4933  2.4412  1.9678  1.5316  1.5316
  1.1393  0.9818  0.9818  1.0434  1.0147  0.9726  0.9726

 Free energy of the ion-electron system (eV)
  ---------------------------------------------------
  alpha Z        PSCENC =         0.02803141
  Ewald energy   TEWEN  =       121.56475441
  -Hartree energ DENC   =      -515.29862369
  -exchange      EXHF   =         0.00000000
  -V(xc)+E(xc)   XCENC  =        33.61541840
  PAW double counting   =       561.53972834     -563.28331813
  entropy T*S    EENTRO =        -0.00000000
  eigenvalues    EBANDS =      -109.60960741
  atomic energy  EATOM  =       457.26981990
  Solvation  Ediel_sol  =         0.00000000
  ---------------------------------------------------
  free energy    TOTEN  =       -14.17379676 eV

  energy without entropy =      -14.17379676  energy(sigma->0) =      -14.17379676


--------------------------------------------------------------------------------------------------------




--------------------------------------- Iteration     18(  19)  ---------------------------------------


    POTLOK:  cpu time      0.0695: real time      0.0706
    SETDIJ:  cpu time      0.0903: real time      0.0909
     EDDAV:  cpu time      0.3152: real time      0.3185
       DOS:  cpu time      0.0006: real time      0.0006
    --------------------------------------------
      LOOP:  cpu time      0.4756: real time      0.4805

 eigenvalue-minimisations  :   128
 total energy-change (2. order) :-0.7640892E-08  (-0.1346656E-10)
 number of electron       7.9999999 magnetization 
 augmentation part        0.6836246 magnetization 

 Free energy of the ion-electron system (eV)
  ---------------------------------------------------
  alpha Z        PSCENC =         0.02803141
  Ewald energy   TEWEN  =       121.56475441
  -Hartree energ DENC   =      -515.29862513
  -exchange      EXHF   =         0.00000000
  -V(xc)+E(xc)   XCENC  =        33.61541846
  PAW double counting   =       561.53972543     -563.28331520
  entropy T*S    EENTRO =        -0.00000000
  eigenvalues    EBANDS =      -109.60960604
  atomic energy  EATOM  =       457.26981990
  Solvation  Ediel_sol  =         0.00000000
  ---------------------------------------------------
  free energy    TOTEN  =       -14.17379677 eV

  energy without entropy =      -14.17379677  energy(sigma->0) =      -14.17379677


--------------------------------------------------------------------------------------------------------




 average (electrostatic) potential at core
  the test charge radii are     0.5201  0.7215
  (the norm of the test charge is              1.0000)
       1 -44.8362       2 -44.8345       3 -80.7502



 E-fermi :  -7.1168     XC(G=0):  -0.1047     alpha+bet : -0.0163

 val. band max:       -7.1706029608   @ k =   0.0000   0.0000   0.0000
 cond. band min:      -1.0693550683   @ k =   0.0000   0.0000   0.0000
 fundamental gap:      6.1012478925
 Fermi energy:        -7.1167978641

 k-point     1 :       0.0000    0.0000    0.0000
  band No.  band energies     occupation 
      1     -25.3316      2.00000
      2     -13.0391      2.00000
      3      -9.2635      2.00000
      4      -7.1706      2.00000
      5      -1.0694      0.00000
      6       0.0115      0.00000
      7       0.1966      0.00000
      8       0.2970      0.00000
      9       0.3121      0.00000
     10       0.3414      0.00000
     11       0.3479      0.00000
     12       0.4624      0.00000
     13       0.4969      0.00000
     14       0.6017      0.00000
     15       0.6228      0.00000
     16       0.7073      0.00000
     17       0.7081      0.00000
     18       0.7133      0.00000
     19       0.7176      0.00000
     20       0.7216      0.00000
     21       0.7295      0.00000
     22       0.7314      0.00000
     23       0.7367      0.00000
     24       0.9374      0.00000
     25       0.9378      0.00000
     26       1.0204      0.00000
     27       1.0347      0.00000
     28       1.0809      0.00000
     29       1.0849      0.00000
     30       1.0883      0.00000
     31       1.1042      0.00000
     32       1.2529      0.00000


--------------------------------------------------------------------------------------------------------


 soft charge-density along one line, spin component           1
         0         1         2         3         4         5         6         7         8         9
 total charge-density along one line

 pseudopotential strength for first ion, spin component:           1
 -2.379  -4.109  -0.023  -0.000   0.002
 -4.109  -7.012  -0.042  -0.001   0.005
 -0.023  -0.042  -0.283   0.001  -0.005
 -0.000  -0.001   0.001  -0.327  -0.000
  0.002   0.005  -0.005  -0.000  -0.325
 total augmentation occupancy for first ion, spin component:           1
  3.965  -0.866   0.707   0.014  -0.104
 -0.866   0.236  -0.151  -0.003   0.027
  0.707  -0.151   0.126   0.002  -0.017
  0.014  -0.003   0.002   0.038   0.000
 -0.104   0.027  -0.017   0.000   0.027


------------------------ aborting loop because EDIFF is reached ----------------------------------------


    CHARGE:  cpu time      0.0650: real time      0.0658
    FORLOC:  cpu time      0.0037: real time      0.0037
    FORNL :  cpu time      0.2441: real time      0.2469
    STRESS:  cpu time      0.9297: real time      0.9400
    FORCOR:  cpu time      0.0609: real time      0.0615
    FORHAR:  cpu time      0.0164: real time      0.0165
    MIXING:  cpu time      0.0033: real time      0.0034
    OFIELD:  cpu time      0.0000: real time      0.0000

 ---------------------------------------------------------------------------------------------

         DFTD3 V3.0 Rev 1        
 Edisp (eV)   -0.00134

 E6    (eV) :    -0.0013
 E8    (eV) :    -0.0001
 % E8        :  5.25
    FORVDW:  cpu time      0.0081: real time      0.0082

  FORCE on cell =-STRESS in cart. coord.  units (eV):
  Direction    XX          YY          ZZ          XY          YZ          ZX
  --------------------------------------------------------------------------------------
  Alpha Z     0.02803     0.02803     0.02803
  Ewald      57.26629    86.04009   -21.74158    22.23598     1.07000    -1.96472
  Hartree   174.86633   179.82805   160.60424     3.82706     0.19424    -0.35659
  E(xc)     -36.31264   -36.17050   -36.76746     0.11023     0.00636    -0.01167
  Local    -317.82455  -343.45864  -248.70162   -19.79180    -0.93184     1.71100
  n-local   -30.67662   -30.20526   -30.81101     0.36455    -0.00091     0.00166
  augment     6.44697     5.93544     8.08321    -0.39657    -0.02272     0.04176
  Kinetic   145.44825   137.28360   168.47639    -6.32385    -0.31370     0.57584
  Fock        0.00000     0.00000     0.00000     0.00000     0.00000     0.00000
  vdW         0.00263     0.00800    -0.00000     0.00416     0.00001    -0.00001
  -------------------------------------------------------------------------------------
  Total      -0.75529    -0.71118    -0.82979     0.02975     0.00143    -0.00273
  in kB      -0.15126    -0.14243    -0.16618     0.00596     0.00029    -0.00055
  external pressure =       -0.15 kB  Pullay stress =        0.00 kB


 VOLUME and BASIS-vectors are now :
 -----------------------------------------------------------------------------
  energy-cutoff  :      400.00
  volume of cell :     8000.00
      direct lattice vectors                 reciprocal lattice vectors
    20.000000000  0.000000000  0.000000000     0.050000000  0.000000000  0.000000000
     0.000000000 20.000000000  0.000000000     0.000000000  0.050000000  0.000000000
     0.000000000  0.000000000 20.000000000     0.000000000  0.000000000  0.050000000

  length of vectors
    20.000000000 20.000000000 20.000000000     0.050000000  0.050000000  0.050000000


 FORCES acting on ions
    electron-ion (+dipol)            ewald-force                    non-local-force                 convergence-correction
 -----------------------------------------------------------------------------------------------
   -.108E+02 0.871E+02 0.171E+01   0.118E+02 -.953E+02 -.187E+01   -.105E+01 0.818E+01 0.162E+00   0.543E-07 -.414E-07 -.754E-07
   -.790E+02 -.382E+02 0.171E+01   0.864E+02 0.417E+02 -.187E+01   -.744E+01 -.355E+01 0.162E+00   -.640E-07 0.295E-07 -.575E-07
   0.551E+02 -.300E+02 -.210E+01   -.983E+02 0.535E+02 0.374E+01   0.431E+02 -.235E+02 -.165E+01   0.160E-05 0.217E-05 -.126E-06
 -----------------------------------------------------------------------------------------------
   -.347E+02 0.189E+02 0.132E+01   0.000E+00 0.000E+00 0.000E+00   0.346E+02 -.189E+02 -.132E+01   0.159E-05 0.215E-05 -.259E-06


 POSITION                                       TOTAL-FORCE (eV/Angst)
 -----------------------------------------------------------------------------------
      9.80755      9.62347     10.00000        -0.003390      0.009538      0.002625
     10.54234     10.97263     10.00000        -0.008601     -0.002494      0.002604
      9.65011     10.58390     10.02000         0.011991     -0.007045     -0.005229
 -----------------------------------------------------------------------------------
    total drift:                               -0.008818      0.004879     -0.006983


--------------------------------------------------------------------------------------------------------



  FREE ENERGIE OF THE ION-ELECTRON SYSTEM (eV)
  ---------------------------------------------------
  free  energy   TOTEN  =       -14.17514089 eV

  energy  without entropy=      -14.17514089  energy(sigma->0) =      -14.17514089

 d Force = 0.1203176E-01[-0.245E-03, 0.243E-01]  d Energy = 0.1186281E-01 0.169E-03
 d Force = 0.1135984E+01[ 0.115E+01, 0.113E+01]  d Ewald  = 0.1135798E+01 0.186E-03


--------------------------------------------------------------------------------------------------------


    POTLOK:  cpu time      0.1624: real time      0.1637


--------------------------------------------------------------------------------------------------------


 Finite differences progress:
  Degree of freedom:   9/  9
  Displacement:        1/  2
  Total:              17/ 18
    WAVPRE:  cpu time      0.0096: real time      0.0109
    FEWALD:  cpu time      0.0003: real time      0.0003
    ORTHCH:  cpu time      0.0141: real time      0.0143
     LOOP+:  cpu time     10.7553: real time     10.8742


--------------------------------------- Ionic step       19  -------------------------------------------




--------------------------------------- Iteration     19(   1)  ---------------------------------------


    POTLOK:  cpu time      0.0630: real time      0.0642
    SETDIJ:  cpu time      0.0898: real time      0.0905
     EDDAV:  cpu time      0.1684: real time      0.1703
       DOS:  cpu time      0.0006: real time      0.0006
    CHARGE:  cpu time      0.0646: real time      0.0658
    MIXING:  cpu time      0.0028: real time      0.0029
    --------------------------------------------
      LOOP:  cpu time      0.3892: real time      0.3942

 eigenvalue-minimisations  :    64
 total energy-change (2. order) : 0.7420643E-02  (-0.9417246E+00)
 number of electron       7.9999999 magnetization 
 augmentation part        0.6826875 magnetization 

 Broyden mixing:
  rms(total) = 0.49599E-01    rms(broyden)= 0.47012E-01
  rms(prec ) = 0.48403E-01
  weight for this iteration     100.00

 Free energy of the ion-electron system (eV)
  ---------------------------------------------------
  alpha Z        PSCENC =         0.02803141
  Ewald energy   TEWEN  =       121.56474069
  -Hartree energ DENC   =      -515.26593286
  -exchange      EXHF   =         0.00000000
  -V(xc)+E(xc)   XCENC  =        33.61390440
  PAW double counting   =       561.53973180     -563.28332163
  entropy T*S    EENTRO =        -0.00000000
  eigenvalues    EBANDS =      -109.63334982
  atomic energy  EATOM  =       457.26981990
  Solvation  Ediel_sol  =         0.00000000
  ---------------------------------------------------
  free energy    TOTEN  =       -14.16637612 eV

  energy without entropy =      -14.16637612  energy(sigma->0) =      -14.16637612


--------------------------------------------------------------------------------------------------------




--------------------------------------- Iteration     19(   2)  ---------------------------------------


    POTLOK:  cpu time      0.0679: real time      0.0684
    SETDIJ:  cpu time      0.0904: real time      0.0910
     EDDAV:  cpu time      0.2358: real time      0.2382
       DOS:  cpu time      0.0007: real time      0.0007
    CHARGE:  cpu time      0.0650: real time      0.0662
    MIXING:  cpu time      0.0029: real time      0.0030
    --------------------------------------------
      LOOP:  cpu time      0.4627: real time      0.4676

 eigenvalue-minimisations  :    96
 total energy-change (2. order) :-0.5541101E-02  (-0.9679703E-02)
 number of electron       7.9999999 magnetization 
 augmentation part        0.6844611 magnetization 

 Broyden mixing:
  rms(total) = 0.24313E-01    rms(broyden)= 0.24165E-01
  rms(prec ) = 0.25565E-01
  weight for this iteration     100.00

 eigenvalues of (default mixing * dielectric matrix)
  average eigenvalue GAMMA=   1.0940
  1.0940

 Free energy of the ion-electron system (eV)
  ---------------------------------------------------
  alpha Z        PSCENC =         0.02803141
  Ewald energy   TEWEN  =       121.56474069
  -Hartree energ DENC   =      -515.17392798
  -exchange      EXHF   =         0.00000000
  -V(xc)+E(xc)   XCENC  =        33.60993076
  PAW double counting   =       561.76299263     -563.50552893
  entropy T*S    EENTRO =        -0.00000000
  eigenvalues    EBANDS =      -109.72797571
  atomic energy  EATOM  =       457.26981990
  Solvation  Ediel_sol  =         0.00000000
  ---------------------------------------------------
  free energy    TOTEN  =       -14.17191722 eV

  energy without entropy =      -14.17191722  energy(sigma->0) =      -14.17191722


--------------------------------------------------------------------------------------------------------




--------------------------------------- Iteration     19(   3)  ---------------------------------------


    POTLOK:  cpu time      0.0637: real time      0.0642
    SETDIJ:  cpu time      0.0914: real time      0.0920
     EDDAV:  cpu time      0.2476: real time      0.2508
       DOS:  cpu time      0.0007: real time      0.0007
    CHARGE:  cpu time      0.0643: real time      0.0655
    MIXING:  cpu time      0.0029: real time      0.0029
    --------------------------------------------
      LOOP:  cpu time      0.4706: real time      0.4762

 eigenvalue-minimisations  :    96
 total energy-change (2. order) :-0.4025727E-03  (-0.1483461E-03)
 number of electron       7.9999999 magnetization 
 augmentation part        0.6835095 magnetization 

 Broyden mixing:
  rms(total) = 0.12748E-01    rms(broyden)= 0.12739E-01
  rms(prec ) = 0.13486E-01
  weight for this iteration     100.00

 eigenvalues of (default mixing * dielectric matrix)
  average eigenvalue GAMMA=   1.5708
  0.9349  2.2066

 Free energy of the ion-electron system (eV)
  ---------------------------------------------------
  alpha Z        PSCENC =         0.02803141
  Ewald energy   TEWEN  =       121.56474069
  -Hartree energ DENC   =      -515.31323712
  -exchange      EXHF   =         0.00000000
  -V(xc)+E(xc)   XCENC  =        33.61691134
  PAW double counting   =       561.85206087     -563.59628558
  entropy T*S    EENTRO =        -0.00000000
  eigenvalues    EBANDS =      -109.59436130
  atomic energy  EATOM  =       457.26981990
  Solvation  Ediel_sol  =         0.00000000
  ---------------------------------------------------
  free energy    TOTEN  =       -14.17231979 eV

  energy without entropy =      -14.17231979  energy(sigma->0) =      -14.17231979


--------------------------------------------------------------------------------------------------------




--------------------------------------- Iteration     19(   4)  ---------------------------------------


    POTLOK:  cpu time      0.0634: real time      0.0640
    SETDIJ:  cpu time      0.0906: real time      0.0912
     EDDAV:  cpu time      0.2385: real time      0.2410
       DOS:  cpu time      0.0006: real time      0.0007
    CHARGE:  cpu time      0.0636: real time      0.0648
    MIXING:  cpu time      0.0038: real time      0.0038
    --------------------------------------------
      LOOP:  cpu time      0.4605: real time      0.4654

 eigenvalue-minimisations  :    96
 total energy-change (2. order) :-0.1025875E-02  (-0.1219179E-03)
 number of electron       7.9999999 magnetization 
 augmentation part        0.6835293 magnetization 

 Broyden mixing:
  rms(total) = 0.23278E-02    rms(broyden)= 0.23238E-02
  rms(prec ) = 0.26559E-02
  weight for this iteration     100.00

 eigenvalues of (default mixing * dielectric matrix)
  average eigenvalue GAMMA=   1.4693
  2.3675  1.0202  1.0202

 Free energy of the ion-electron system (eV)
  ---------------------------------------------------
  alpha Z        PSCENC =         0.02803141
  Ewald energy   TEWEN  =       121.56474069
  -Hartree energ DENC   =      -515.31758524
  -exchange      EXHF   =         0.00000000
  -V(xc)+E(xc)   XCENC  =        33.61672653
  PAW double counting   =       561.58965984     -563.33313422
  entropy T*S    EENTRO =        -0.00000000
  eigenvalues    EBANDS =      -109.59160457
  atomic energy  EATOM  =       457.26981990
  Solvation  Ediel_sol  =         0.00000000
  ---------------------------------------------------
  free energy    TOTEN  =       -14.17334567 eV

  energy without entropy =      -14.17334567  energy(sigma->0) =      -14.17334567


--------------------------------------------------------------------------------------------------------




--------------------------------------- Iteration     19(   5)  ---------------------------------------


    POTLOK:  cpu time      0.0637: real time      0.0642
    SETDIJ:  cpu time      0.0901: real time      0.0907
     EDDAV:  cpu time      0.1682: real time      0.1702
       DOS:  cpu time      0.0007: real time      0.0007
    CHARGE:  cpu time      0.0636: real time      0.0649
    MIXING:  cpu time      0.0032: real time      0.0032
    --------------------------------------------
      LOOP:  cpu time      0.3895: real time      0.3940

 eigenvalue-minimisations  :    64
 total energy-change (2. order) :-0.5731439E-04  (-0.1168104E-04)
 number of electron       7.9999999 magnetization 
 augmentation part        0.6836000 magnetization 

 Broyden mixing:
  rms(total) = 0.15933E-02    rms(broyden)= 0.15913E-02
  rms(prec ) = 0.18749E-02
  weight for this iteration     100.00

 eigenvalues of (default mixing * dielectric matrix)
  average eigenvalue GAMMA=   1.6045
  2.6468  0.8922  1.4395  1.4395

 Free energy of the ion-electron system (eV)
  ---------------------------------------------------
  alpha Z        PSCENC =         0.02803141
  Ewald energy   TEWEN  =       121.56474069
  -Hartree energ DENC   =      -515.30467989
  -exchange      EXHF   =         0.00000000
  -V(xc)+E(xc)   XCENC  =        33.61601311
  PAW double counting   =       561.52718109     -563.27060624
  entropy T*S    EENTRO =        -0.00000000
  eigenvalues    EBANDS =      -109.60390305
  atomic energy  EATOM  =       457.26981990
  Solvation  Ediel_sol  =         0.00000000
  ---------------------------------------------------
  free energy    TOTEN  =       -14.17340298 eV

  energy without entropy =      -14.17340298  energy(sigma->0) =      -14.17340298


--------------------------------------------------------------------------------------------------------




--------------------------------------- Iteration     19(   6)  ---------------------------------------


    POTLOK:  cpu time      0.0637: real time      0.0654
    SETDIJ:  cpu time      0.0898: real time      0.0905
     EDDAV:  cpu time      0.2385: real time      0.2408
       DOS:  cpu time      0.0006: real time      0.0007
    CHARGE:  cpu time      0.0638: real time      0.0651
    MIXING:  cpu time      0.0023: real time      0.0023
    --------------------------------------------
      LOOP:  cpu time      0.4587: real time      0.4647

 eigenvalue-minimisations  :    96
 total energy-change (2. order) :-0.7853053E-04  (-0.1508700E-05)
 number of electron       7.9999999 magnetization 
 augmentation part        0.6836099 magnetization 

 Broyden mixing:
  rms(total) = 0.44443E-03    rms(broyden)= 0.44264E-03
  rms(prec ) = 0.75757E-03
  weight for this iteration     100.00

 eigenvalues of (default mixing * dielectric matrix)
  average eigenvalue GAMMA=   1.5495
  2.5128  2.1325  0.8959  1.1031  1.1031

 Free energy of the ion-electron system (eV)
  ---------------------------------------------------
  alpha Z        PSCENC =         0.02803141
  Ewald energy   TEWEN  =       121.56474069
  -Hartree energ DENC   =      -515.30439182
  -exchange      EXHF   =         0.00000000
  -V(xc)+E(xc)   XCENC  =        33.61595376
  PAW double counting   =       561.54569878     -563.28928854
  entropy T*S    EENTRO =        -0.00000000
  eigenvalues    EBANDS =      -109.60404569
  atomic energy  EATOM  =       457.26981990
  Solvation  Ediel_sol  =         0.00000000
  ---------------------------------------------------
  free energy    TOTEN  =       -14.17348151 eV

  energy without entropy =      -14.17348151  energy(sigma->0) =      -14.17348151


--------------------------------------------------------------------------------------------------------




--------------------------------------- Iteration     19(   7)  ---------------------------------------


    POTLOK:  cpu time      0.0641: real time      0.0652
    SETDIJ:  cpu time      0.0899: real time      0.0905
     EDDAV:  cpu time      0.1709: real time      0.1727
       DOS:  cpu time      0.0005: real time      0.0005
    CHARGE:  cpu time      0.0638: real time      0.0650
    MIXING:  cpu time      0.0022: real time      0.0022
    --------------------------------------------
      LOOP:  cpu time      0.3915: real time      0.3962

 eigenvalue-minimisations  :    64
 total energy-change (2. order) :-0.7030057E-04  (-0.6082982E-06)
 number of electron       7.9999999 magnetization 
 augmentation part        0.6836383 magnetization 

 Broyden mixing:
  rms(total) = 0.33778E-03    rms(broyden)= 0.33569E-03
  rms(prec ) = 0.59277E-03
  weight for this iteration     100.00

 eigenvalues of (default mixing * dielectric matrix)
  average eigenvalue GAMMA=   1.9079
  3.9259  2.5671  1.7552  0.9369  1.0129  1.2495

 Free energy of the ion-electron system (eV)
  ---------------------------------------------------
  alpha Z        PSCENC =         0.02803141
  Ewald energy   TEWEN  =       121.56474069
  -Hartree energ DENC   =      -515.29959889
  -exchange      EXHF   =         0.00000000
  -V(xc)+E(xc)   XCENC  =        33.61564021
  PAW double counting   =       561.54530373     -563.28888631
  entropy T*S    EENTRO =        -0.00000000
  eigenvalues    EBANDS =      -109.60860255
  atomic energy  EATOM  =       457.26981990
  Solvation  Ediel_sol  =         0.00000000
  ---------------------------------------------------
  free energy    TOTEN  =       -14.17355181 eV

  energy without entropy =      -14.17355181  energy(sigma->0) =      -14.17355181


--------------------------------------------------------------------------------------------------------




--------------------------------------- Iteration     19(   8)  ---------------------------------------


    POTLOK:  cpu time      0.0633: real time      0.0644
    SETDIJ:  cpu time      0.0895: real time      0.0903
     EDDAV:  cpu time      0.1699: real time      0.1718
       DOS:  cpu time      0.0006: real time      0.0006
    CHARGE:  cpu time      0.0647: real time      0.0659
    MIXING:  cpu time      0.0023: real time      0.0023
    --------------------------------------------
      LOOP:  cpu time      0.3903: real time      0.3953

 eigenvalue-minimisations  :    64
 total energy-change (2. order) :-0.1402370E-03  (-0.3415917E-05)
 number of electron       7.9999999 magnetization 
 augmentation part        0.6836226 magnetization 

 Broyden mixing:
  rms(total) = 0.11732E-03    rms(broyden)= 0.11047E-03
  rms(prec ) = 0.20804E-03
  weight for this iteration     100.00

 eigenvalues of (default mixing * dielectric matrix)
  average eigenvalue GAMMA=   1.9653
  4.8275  2.5207  1.8519  0.9570  0.9570  1.3737  1.2691

 Free energy of the ion-electron system (eV)
  ---------------------------------------------------
  alpha Z        PSCENC =         0.02803141
  Ewald energy   TEWEN  =       121.56474069
  -Hartree energ DENC   =      -515.29995869
  -exchange      EXHF   =         0.00000000
  -V(xc)+E(xc)   XCENC  =        33.61555232
  PAW double counting   =       561.53692801     -563.28055574
  entropy T*S    EENTRO =        -0.00000000
  eigenvalues    EBANDS =      -109.60824995
  atomic energy  EATOM  =       457.26981990
  Solvation  Ediel_sol  =         0.00000000
  ---------------------------------------------------
  free energy    TOTEN  =       -14.17369205 eV

  energy without entropy =      -14.17369205  energy(sigma->0) =      -14.17369205


--------------------------------------------------------------------------------------------------------




--------------------------------------- Iteration     19(   9)  ---------------------------------------


    POTLOK:  cpu time      0.0632: real time      0.0639
    SETDIJ:  cpu time      0.0905: real time      0.0912
     EDDAV:  cpu time      0.2356: real time      0.2380
       DOS:  cpu time      0.0007: real time      0.0007
    CHARGE:  cpu time      0.0650: real time      0.0662
    MIXING:  cpu time      0.0024: real time      0.0024
    --------------------------------------------
      LOOP:  cpu time      0.4574: real time      0.4624

 eigenvalue-minimisations  :    96
 total energy-change (2. order) :-0.4567326E-04  (-0.3513231E-06)
 number of electron       7.9999999 magnetization 
 augmentation part        0.6836215 magnetization 

 Broyden mixing:
  rms(total) = 0.98484E-04    rms(broyden)= 0.91295E-04
  rms(prec ) = 0.14774E-03
  weight for this iteration     100.00

 eigenvalues of (default mixing * dielectric matrix)
  average eigenvalue GAMMA=   2.2258
  6.4181  2.9022  2.5331  1.7412  1.2825  1.0050  1.0050  0.9192

 Free energy of the ion-electron system (eV)
  ---------------------------------------------------
  alpha Z        PSCENC =         0.02803141
  Ewald energy   TEWEN  =       121.56474069
  -Hartree energ DENC   =      -515.29969295
  -exchange      EXHF   =         0.00000000
  -V(xc)+E(xc)   XCENC  =        33.61551126
  PAW double counting   =       561.53826478     -563.28186229
  entropy T*S    EENTRO =        -0.00000000
  eigenvalues    EBANDS =      -109.60855053
  atomic energy  EATOM  =       457.26981990
  Solvation  Ediel_sol  =         0.00000000
  ---------------------------------------------------
  free energy    TOTEN  =       -14.17373772 eV

  energy without entropy =      -14.17373772  energy(sigma->0) =      -14.17373772


--------------------------------------------------------------------------------------------------------




--------------------------------------- Iteration     19(  10)  ---------------------------------------


    POTLOK:  cpu time      0.0671: real time      0.0684
    SETDIJ:  cpu time      0.0905: real time      0.0911
     EDDAV:  cpu time      0.1696: real time      0.1716
       DOS:  cpu time      0.0007: real time      0.0007
    CHARGE:  cpu time      0.0642: real time      0.0654
    MIXING:  cpu time      0.0026: real time      0.0026
    --------------------------------------------
      LOOP:  cpu time      0.3946: real time      0.3998

 eigenvalue-minimisations  :    64
 total energy-change (2. order) :-0.3463526E-04  (-0.2635613E-06)
 number of electron       7.9999999 magnetization 
 augmentation part        0.6836243 magnetization 

 Broyden mixing:
  rms(total) = 0.62272E-04    rms(broyden)= 0.50123E-04
  rms(prec ) = 0.73227E-04
  weight for this iteration     100.00
  WARNING: grid for Broyden might be to small

 eigenvalues of (default mixing * dielectric matrix)
  average eigenvalue GAMMA=   2.3675
  7.1950  3.6896  2.5699  1.9748  1.6881  1.2446  0.9254  1.0102  1.0102

 Free energy of the ion-electron system (eV)
  ---------------------------------------------------
  alpha Z        PSCENC =         0.02803141
  Ewald energy   TEWEN  =       121.56474069
  -Hartree energ DENC   =      -515.29881739
  -exchange      EXHF   =         0.00000000
  -V(xc)+E(xc)   XCENC  =        33.61544358
  PAW double counting   =       561.54044727     -563.28401635
  entropy T*S    EENTRO =        -0.00000000
  eigenvalues    EBANDS =      -109.60942147
  atomic energy  EATOM  =       457.26981990
  Solvation  Ediel_sol  =         0.00000000
  ---------------------------------------------------
  free energy    TOTEN  =       -14.17377236 eV

  energy without entropy =      -14.17377236  energy(sigma->0) =      -14.17377236


--------------------------------------------------------------------------------------------------------




--------------------------------------- Iteration     19(  11)  ---------------------------------------


    POTLOK:  cpu time      0.0719: real time      0.0724
    SETDIJ:  cpu time      0.0898: real time      0.0905
     EDDAV:  cpu time      0.2354: real time      0.2379
       DOS:  cpu time      0.0005: real time      0.0005
    CHARGE:  cpu time      0.0641: real time      0.0652
    MIXING:  cpu time      0.0026: real time      0.0026
    --------------------------------------------
      LOOP:  cpu time      0.4644: real time      0.4692

 eigenvalue-minimisations  :    96
 total energy-change (2. order) :-0.1441619E-04  (-0.3863167E-07)
 number of electron       7.9999999 magnetization 
 augmentation part        0.6836249 magnetization 

 Broyden mixing:
  rms(total) = 0.54039E-04    rms(broyden)= 0.39458E-04
  rms(prec ) = 0.47817E-04
  weight for this iteration     100.00
  WARNING: grid for Broyden might be to small

 eigenvalues of (default mixing * dielectric matrix)
  average eigenvalue GAMMA=   2.4961
  8.1936  4.3453  2.6718  2.6718  1.7811  1.2946  0.9356  0.9691  1.0492  1.0492

 Free energy of the ion-electron system (eV)
  ---------------------------------------------------
  alpha Z        PSCENC =         0.02803141
  Ewald energy   TEWEN  =       121.56474069
  -Hartree energ DENC   =      -515.29865992
  -exchange      EXHF   =         0.00000000
  -V(xc)+E(xc)   XCENC  =        33.61542659
  PAW double counting   =       561.54077465     -563.28436222
  entropy T*S    EENTRO =        -0.00000000
  eigenvalues    EBANDS =      -109.60955788
  atomic energy  EATOM  =       457.26981990
  Solvation  Ediel_sol  =         0.00000000
  ---------------------------------------------------
  free energy    TOTEN  =       -14.17378677 eV

  energy without entropy =      -14.17378677  energy(sigma->0) =      -14.17378677


--------------------------------------------------------------------------------------------------------




--------------------------------------- Iteration     19(  12)  ---------------------------------------


    POTLOK:  cpu time      0.0632: real time      0.0644
    SETDIJ:  cpu time      0.0902: real time      0.0908
     EDDAV:  cpu time      0.2355: real time      0.2379
       DOS:  cpu time      0.0036: real time      0.0037
    CHARGE:  cpu time      0.0723: real time      0.0735
    MIXING:  cpu time      0.0065: real time      0.0066
    --------------------------------------------
      LOOP:  cpu time      0.4713: real time      0.4769

 eigenvalue-minimisations  :    96
 total energy-change (2. order) :-0.5042990E-05  (-0.8626177E-08)
 number of electron       7.9999999 magnetization 
 augmentation part        0.6836254 magnetization 

 Broyden mixing:
  rms(total) = 0.42944E-04    rms(broyden)= 0.21915E-04
  rms(prec ) = 0.25928E-04
  weight for this iteration     100.00
  WARNING: grid for Broyden might be to small

 eigenvalues of (default mixing * dielectric matrix)
  average eigenvalue GAMMA=   2.5688
  8.5918  4.9696  2.9362  2.3647  2.3647  1.8411  1.2416  0.9254  1.0232  1.0232
  0.9748

 Free energy of the ion-electron system (eV)
  ---------------------------------------------------
  alpha Z        PSCENC =         0.02803141
  Ewald energy   TEWEN  =       121.56474069
  -Hartree energ DENC   =      -515.29849970
  -exchange      EXHF   =         0.00000000
  -V(xc)+E(xc)   XCENC  =        33.61541408
  PAW double counting   =       561.53901869     -563.28261407
  entropy T*S    EENTRO =        -0.00000000
  eigenvalues    EBANDS =      -109.60970282
  atomic energy  EATOM  =       457.26981990
  Solvation  Ediel_sol  =         0.00000000
  ---------------------------------------------------
  free energy    TOTEN  =       -14.17379182 eV

  energy without entropy =      -14.17379182  energy(sigma->0) =      -14.17379182


--------------------------------------------------------------------------------------------------------




--------------------------------------- Iteration     19(  13)  ---------------------------------------


    POTLOK:  cpu time      0.0647: real time      0.0660
    SETDIJ:  cpu time      0.0901: real time      0.0907
     EDDAV:  cpu time      0.2357: real time      0.2382
       DOS:  cpu time      0.0005: real time      0.0005
    CHARGE:  cpu time      0.0642: real time      0.0654
    MIXING:  cpu time      0.0028: real time      0.0028
    --------------------------------------------
      LOOP:  cpu time      0.4580: real time      0.4638

 eigenvalue-minimisations  :    96
 total energy-change (2. order) :-0.2965079E-05  (-0.4017455E-08)
 number of electron       7.9999999 magnetization 
 augmentation part        0.6836239 magnetization 

 Broyden mixing:
  rms(total) = 0.38222E-04    rms(broyden)= 0.98933E-05
  rms(prec ) = 0.11849E-04
  weight for this iteration     100.00
  WARNING: grid for Broyden might be to small

 eigenvalues of (default mixing * dielectric matrix)
  average eigenvalue GAMMA=   2.6208
  9.0132  5.6100  3.4924  2.5691  2.5691  1.7908  1.3184  1.1189  1.0764  0.9200
  0.9858  0.9858

 Free energy of the ion-electron system (eV)
  ---------------------------------------------------
  alpha Z        PSCENC =         0.02803141
  Ewald energy   TEWEN  =       121.56474069
  -Hartree energ DENC   =      -515.29866961
  -exchange      EXHF   =         0.00000000
  -V(xc)+E(xc)   XCENC  =        33.61542224
  PAW double counting   =       561.53945189     -563.28304241
  entropy T*S    EENTRO =        -0.00000000
  eigenvalues    EBANDS =      -109.60954890
  atomic energy  EATOM  =       457.26981990
  Solvation  Ediel_sol  =         0.00000000
  ---------------------------------------------------
  free energy    TOTEN  =       -14.17379478 eV

  energy without entropy =      -14.17379478  energy(sigma->0) =      -14.17379478


--------------------------------------------------------------------------------------------------------




--------------------------------------- Iteration     19(  14)  ---------------------------------------


    POTLOK:  cpu time      0.0658: real time      0.0669
    SETDIJ:  cpu time      0.0904: real time      0.0910
     EDDAV:  cpu time      0.1684: real time      0.1701
       DOS:  cpu time      0.0005: real time      0.0005
    CHARGE:  cpu time      0.0644: real time      0.0656
    MIXING:  cpu time      0.0032: real time      0.0033
    --------------------------------------------
      LOOP:  cpu time      0.3926: real time      0.3973

 eigenvalue-minimisations  :    64
 total energy-change (2. order) :-0.1007222E-05  (-0.8182948E-09)
 number of electron       7.9999999 magnetization 
 augmentation part        0.6836243 magnetization 

 Broyden mixing:
  rms(total) = 0.38692E-04    rms(broyden)= 0.11578E-04
  rms(prec ) = 0.12242E-04
  weight for this iteration     100.00
  WARNING: grid for Broyden might be to small

 eigenvalues of (default mixing * dielectric matrix)
  average eigenvalue GAMMA=   2.6650
  9.2399  6.0683  3.7643  2.6737  2.6737  2.1271  1.8622  1.2308  0.9255  1.0826
  1.0046  1.0046  0.9880

 Free energy of the ion-electron system (eV)
  ---------------------------------------------------
  alpha Z        PSCENC =         0.02803141
  Ewald energy   TEWEN  =       121.56474069
  -Hartree energ DENC   =      -515.29864184
  -exchange      EXHF   =         0.00000000
  -V(xc)+E(xc)   XCENC  =        33.61541992
  PAW double counting   =       561.53959284     -563.28318057
  entropy T*S    EENTRO =        -0.00000000
  eigenvalues    EBANDS =      -109.60957814
  atomic energy  EATOM  =       457.26981990
  Solvation  Ediel_sol  =         0.00000000
  ---------------------------------------------------
  free energy    TOTEN  =       -14.17379579 eV

  energy without entropy =      -14.17379579  energy(sigma->0) =      -14.17379579


--------------------------------------------------------------------------------------------------------




--------------------------------------- Iteration     19(  15)  ---------------------------------------


    POTLOK:  cpu time      0.0657: real time      0.0664
    SETDIJ:  cpu time      0.0900: real time      0.0907
     EDDAV:  cpu time      0.2359: real time      0.2384
       DOS:  cpu time      0.0004: real time      0.0004
    CHARGE:  cpu time      0.1019: real time      0.1032
    MIXING:  cpu time      0.0309: real time      0.0311
    --------------------------------------------
      LOOP:  cpu time      0.5248: real time      0.5302

 eigenvalue-minimisations  :    96
 total energy-change (2. order) :-0.5989032E-06  (-0.3663647E-09)
 number of electron       7.9999999 magnetization 
 augmentation part        0.6836246 magnetization 

 Broyden mixing:
  rms(total) = 0.36996E-04    rms(broyden)= 0.23881E-05
  rms(prec ) = 0.28244E-05
  weight for this iteration     100.00
  WARNING: grid for Broyden might be to small

 eigenvalues of (default mixing * dielectric matrix)
  average eigenvalue GAMMA=   2.6719
  9.4755  6.5629  4.2675  2.9622  2.4726  2.4269  1.8180  1.2795  1.1193  1.1193
  0.9261  1.0016  1.0016  0.9740

 Free energy of the ion-electron system (eV)
  ---------------------------------------------------
  alpha Z        PSCENC =         0.02803141
  Ewald energy   TEWEN  =       121.56474069
  -Hartree energ DENC   =      -515.29862181
  -exchange      EXHF   =         0.00000000
  -V(xc)+E(xc)   XCENC  =        33.61541823
  PAW double counting   =       561.53985746     -563.28344651
  entropy T*S    EENTRO =        -0.00000000
  eigenvalues    EBANDS =      -109.60959576
  atomic energy  EATOM  =       457.26981990
  Solvation  Ediel_sol  =         0.00000000
  ---------------------------------------------------
  free energy    TOTEN  =       -14.17379639 eV

  energy without entropy =      -14.17379639  energy(sigma->0) =      -14.17379639


--------------------------------------------------------------------------------------------------------




--------------------------------------- Iteration     19(  16)  ---------------------------------------


    POTLOK:  cpu time      0.7546: real time      0.7576
    SETDIJ:  cpu time      0.0895: real time      0.0901
     EDDAV:  cpu time      0.1701: real time      0.1720
       DOS:  cpu time      0.0006: real time      0.0006
    CHARGE:  cpu time      0.0641: real time      0.0653
    MIXING:  cpu time      0.0344: real time      0.0346
    --------------------------------------------
      LOOP:  cpu time      1.1134: real time      1.1203

 eigenvalue-minimisations  :    64
 total energy-change (2. order) :-0.1581877E-06  (-0.4296474E-10)
 number of electron       7.9999999 magnetization 
 augmentation part        0.6836246 magnetization 

 Broyden mixing:
  rms(total) = 0.37029E-04    rms(broyden)= 0.28527E-05
  rms(prec ) = 0.30424E-05
  weight for this iteration     100.00
  WARNING: grid for Broyden might be to small

 eigenvalues of (default mixing * dielectric matrix)
  average eigenvalue GAMMA=   2.7303
  9.7132  6.9893  4.6810  3.2450  2.5563  2.5563  1.9300  1.9300  0.9225  0.9796
  0.9796  1.0276  1.0276  1.2086  1.2086

 Free energy of the ion-electron system (eV)
  ---------------------------------------------------
  alpha Z        PSCENC =         0.02803141
  Ewald energy   TEWEN  =       121.56474069
  -Hartree energ DENC   =      -515.29860563
  -exchange      EXHF   =         0.00000000
  -V(xc)+E(xc)   XCENC  =        33.61541727
  PAW double counting   =       561.53978527     -563.28337472
  entropy T*S    EENTRO =        -0.00000000
  eigenvalues    EBANDS =      -109.60961074
  atomic energy  EATOM  =       457.26981990
  Solvation  Ediel_sol  =         0.00000000
  ---------------------------------------------------
  free energy    TOTEN  =       -14.17379655 eV

  energy without entropy =      -14.17379655  energy(sigma->0) =      -14.17379655


--------------------------------------------------------------------------------------------------------




--------------------------------------- Iteration     19(  17)  ---------------------------------------


    POTLOK:  cpu time      0.2259: real time      0.2271
    SETDIJ:  cpu time      0.0900: real time      0.0906
     EDDAV:  cpu time      0.2479: real time      0.2499
       DOS:  cpu time      0.0009: real time      0.0009
    CHARGE:  cpu time      0.1013: real time      0.1025
    MIXING:  cpu time      0.0158: real time      0.0159
    --------------------------------------------
      LOOP:  cpu time      0.6818: real time      0.6871

 eigenvalue-minimisations  :    64
 total energy-change (2. order) :-0.1296449E-06  (-0.2829381E-10)
 number of electron       7.9999999 magnetization 
 augmentation part        0.6836245 magnetization 

 Broyden mixing:
  rms(total) = 0.36924E-04    rms(broyden)= 0.60022E-06
  rms(prec ) = 0.73550E-06
  weight for this iteration     100.00
  WARNING: grid for Broyden might be to small

 eigenvalues of (default mixing * dielectric matrix)
  average eigenvalue GAMMA=   2.7289
  9.8244  7.1981  5.0289  3.5101  2.8471  2.5641  2.1298  1.8560  1.2860  1.2860
  1.2206  0.9236  0.9774  0.9774  1.0162  1.0162

 Free energy of the ion-electron system (eV)
  ---------------------------------------------------
  alpha Z        PSCENC =         0.02803141
  Ewald energy   TEWEN  =       121.56474069
  -Hartree energ DENC   =      -515.29860850
  -exchange      EXHF   =         0.00000000
  -V(xc)+E(xc)   XCENC  =        33.61541752
  PAW double counting   =       561.53964506     -563.28323465
  entropy T*S    EENTRO =        -0.00000000
  eigenvalues    EBANDS =      -109.60960811
  atomic energy  EATOM  =       457.26981990
  Solvation  Ediel_sol  =         0.00000000
  ---------------------------------------------------
  free energy    TOTEN  =       -14.17379668 eV

  energy without entropy =      -14.17379668  energy(sigma->0) =      -14.17379668


--------------------------------------------------------------------------------------------------------




--------------------------------------- Iteration     19(  18)  ---------------------------------------


    POTLOK:  cpu time      0.0657: real time      0.0662
    SETDIJ:  cpu time      0.0905: real time      0.0911
     EDDAV:  cpu time      0.1714: real time      0.1731
       DOS:  cpu time      0.0006: real time      0.0006
    CHARGE:  cpu time      0.0638: real time      0.0650
    MIXING:  cpu time      0.0034: real time      0.0034
    --------------------------------------------
      LOOP:  cpu time      0.3953: real time      0.3994

 eigenvalue-minimisations  :    64
 total energy-change (2. order) :-0.3880632E-07  (-0.1389822E-10)
 number of electron       7.9999999 magnetization 
 augmentation part        0.6836245 magnetization 

 Broyden mixing:
  rms(total) = 0.36922E-04    rms(broyden)= 0.45513E-06
  rms(prec ) = 0.52017E-06
  weight for this iteration     100.00
  WARNING: grid for Broyden might be to small

 eigenvalues of (default mixing * dielectric matrix)
  average eigenvalue GAMMA=   2.7926
  9.8761  7.4587  5.3676  4.1142  2.9755  2.6548  2.6548  2.0133  1.8820  1.2543
  1.2543  0.9245  1.0488  1.0488  0.9793  0.9793  0.9881

 Free energy of the ion-electron system (eV)
  ---------------------------------------------------
  alpha Z        PSCENC =         0.02803141
  Ewald energy   TEWEN  =       121.56474069
  -Hartree energ DENC   =      -515.29861176
  -exchange      EXHF   =         0.00000000
  -V(xc)+E(xc)   XCENC  =        33.61541772
  PAW double counting   =       561.53963207     -563.28322160
  entropy T*S    EENTRO =        -0.00000000
  eigenvalues    EBANDS =      -109.60960515
  atomic energy  EATOM  =       457.26981990
  Solvation  Ediel_sol  =         0.00000000
  ---------------------------------------------------
  free energy    TOTEN  =       -14.17379672 eV

  energy without entropy =      -14.17379672  energy(sigma->0) =      -14.17379672


--------------------------------------------------------------------------------------------------------




--------------------------------------- Iteration     19(  19)  ---------------------------------------


    POTLOK:  cpu time      0.0665: real time      0.0676
    SETDIJ:  cpu time      0.0909: real time      0.0916
     EDDAV:  cpu time      0.1684: real time      0.1707
       DOS:  cpu time      0.0006: real time      0.0006
    CHARGE:  cpu time      0.0639: real time      0.0652
    MIXING:  cpu time      0.0050: real time      0.0050
    --------------------------------------------
      LOOP:  cpu time      0.3953: real time      0.4008

 eigenvalue-minimisations  :    64
 total energy-change (2. order) :-0.1784929E-07  (-0.1387690E-10)
 number of electron       7.9999999 magnetization 
 augmentation part        0.6836245 magnetization 

 Broyden mixing:
  rms(total) = 0.36920E-04    rms(broyden)= 0.22185E-06
  rms(prec ) = 0.24838E-06
  weight for this iteration     100.00
  WARNING: grid for Broyden might be to small

 eigenvalues of (default mixing * dielectric matrix)
  average eigenvalue GAMMA=   2.7960
  9.9110  7.5136  5.6337  4.2672  3.1614  2.6567  2.4172  2.2447  2.2447  1.8370
  1.2496  1.2496  0.9241  1.0315  1.0315  0.9856  0.9856  0.9831

 Free energy of the ion-electron system (eV)
  ---------------------------------------------------
  alpha Z        PSCENC =         0.02803141
  Ewald energy   TEWEN  =       121.56474069
  -Hartree energ DENC   =      -515.29860999
  -exchange      EXHF   =         0.00000000
  -V(xc)+E(xc)   XCENC  =        33.61541763
  PAW double counting   =       561.53968380     -563.28327317
  entropy T*S    EENTRO =        -0.00000000
  eigenvalues    EBANDS =      -109.60960700
  atomic energy  EATOM  =       457.26981990
  Solvation  Ediel_sol  =         0.00000000
  ---------------------------------------------------
  free energy    TOTEN  =       -14.17379673 eV

  energy without entropy =      -14.17379673  energy(sigma->0) =      -14.17379673


--------------------------------------------------------------------------------------------------------




--------------------------------------- Iteration     19(  20)  ---------------------------------------


    POTLOK:  cpu time      0.0659: real time      0.0665
    SETDIJ:  cpu time      0.0909: real time      0.0915
     EDDAV:  cpu time      0.2358: real time      0.2383
       DOS:  cpu time      0.0005: real time      0.0005
    --------------------------------------------
      LOOP:  cpu time      0.3931: real time      0.3968

 eigenvalue-minimisations  :    96
 total energy-change (2. order) :-0.3362857E-08  (-0.1268319E-10)
 number of electron       7.9999999 magnetization 
 augmentation part        0.6836245 magnetization 

 Free energy of the ion-electron system (eV)
  ---------------------------------------------------
  alpha Z        PSCENC =         0.02803141
  Ewald energy   TEWEN  =       121.56474069
  -Hartree energ DENC   =      -515.29861015
  -exchange      EXHF   =         0.00000000
  -V(xc)+E(xc)   XCENC  =        33.61541766
  PAW double counting   =       561.53967574     -563.28326524
  entropy T*S    EENTRO =        -0.00000000
  eigenvalues    EBANDS =      -109.60960675
  atomic energy  EATOM  =       457.26981990
  Solvation  Ediel_sol  =         0.00000000
  ---------------------------------------------------
  free energy    TOTEN  =       -14.17379674 eV

  energy without entropy =      -14.17379674  energy(sigma->0) =      -14.17379674


--------------------------------------------------------------------------------------------------------




 average (electrostatic) potential at core
  the test charge radii are     0.5201  0.7215
  (the norm of the test charge is              1.0000)
       1 -44.8362       2 -44.8345       3 -80.7502



 E-fermi :  -7.1168     XC(G=0):  -0.1047     alpha+bet : -0.0163

 val. band max:       -7.1706031919   @ k =   0.0000   0.0000   0.0000
 cond. band min:      -1.0693549590   @ k =   0.0000   0.0000   0.0000
 fundamental gap:      6.1012482328
 Fermi energy:        -7.1167506975

 k-point     1 :       0.0000    0.0000    0.0000
  band No.  band energies     occupation 
      1     -25.3316      2.00000
      2     -13.0391      2.00000
      3      -9.2635      2.00000
      4      -7.1706      2.00000
      5      -1.0694      0.00000
      6       0.0115      0.00000
      7       0.1967      0.00000
      8       0.2971      0.00000
      9       0.3121      0.00000
     10       0.3412      0.00000
     11       0.3480      0.00000
     12       0.4623      0.00000
     13       0.4970      0.00000
     14       0.6016      0.00000
     15       0.6226      0.00000
     16       0.7075      0.00000
     17       0.7082      0.00000
     18       0.7133      0.00000
     19       0.7174      0.00000
     20       0.7216      0.00000
     21       0.7296      0.00000
     22       0.7313      0.00000
     23       0.7369      0.00000
     24       0.9375      0.00000
     25       0.9376      0.00000
     26       1.0202      0.00000
     27       1.0345      0.00000
     28       1.0811      0.00000
     29       1.0851      0.00000
     30       1.0881      0.00000
     31       1.1044      0.00000
     32       1.2530      0.00000


--------------------------------------------------------------------------------------------------------


 soft charge-density along one line, spin component           1
         0         1         2         3         4         5         6         7         8         9
 total charge-density along one line

 pseudopotential strength for first ion, spin component:           1
 -2.379  -4.109  -0.023   0.000   0.002
 -4.109  -7.012  -0.042   0.001   0.005
 -0.023  -0.042  -0.283  -0.001  -0.005
  0.000   0.001  -0.001  -0.327   0.000
  0.002   0.005  -0.005   0.000  -0.325
 total augmentation occupancy for first ion, spin component:           1
  3.965  -0.866   0.707  -0.014  -0.104
 -0.866   0.236  -0.151   0.003   0.027
  0.707  -0.151   0.126  -0.002  -0.017
 -0.014   0.003  -0.002   0.038  -0.000
 -0.104   0.027  -0.017  -0.000   0.027


------------------------ aborting loop because EDIFF is reached ----------------------------------------


    CHARGE:  cpu time      0.0651: real time      0.0658
    FORLOC:  cpu time      0.0021: real time      0.0021
    FORNL :  cpu time      0.2449: real time      0.2478
    STRESS:  cpu time      0.9283: real time      0.9387
    FORCOR:  cpu time      0.0551: real time      0.0556
    FORHAR:  cpu time      0.0146: real time      0.0147
    MIXING:  cpu time      0.0028: real time      0.0028
    OFIELD:  cpu time      0.0000: real time      0.0000

 ---------------------------------------------------------------------------------------------

         DFTD3 V3.0 Rev 1        
 Edisp (eV)   -0.00134

 E6    (eV) :    -0.0013
 E8    (eV) :    -0.0001
 % E8        :  5.25
    FORVDW:  cpu time      0.0080: real time      0.0081

  FORCE on cell =-STRESS in cart. coord.  units (eV):
  Direction    XX          YY          ZZ          XY          YZ          ZX
  --------------------------------------------------------------------------------------
  Alpha Z     0.02803     0.02803     0.02803
  Ewald      57.26627    86.04006   -21.74156    22.23598    -1.07017     1.96510
  Hartree   174.86633   179.82804   160.60424     3.82706    -0.19427     0.35666
  E(xc)     -36.31263   -36.17050   -36.76746     0.11023    -0.00636     0.01167
  Local    -317.82453  -343.45862  -248.70163   -19.79180     0.93198    -1.71132
  n-local   -30.67662   -30.20526   -30.81101     0.36455     0.00091    -0.00166
  augment     6.44697     5.93544     8.08321    -0.39657     0.02273    -0.04177
  Kinetic   145.44825   137.28360   168.47638    -6.32385     0.31374    -0.57595
  Fock        0.00000     0.00000     0.00000     0.00000     0.00000     0.00000
  vdW         0.00263     0.00800    -0.00000     0.00416    -0.00001     0.00001
  -------------------------------------------------------------------------------------
  Total      -0.75530    -0.71120    -0.82980     0.02974    -0.00143     0.00273
  in kB      -0.15126    -0.14243    -0.16618     0.00596    -0.00029     0.00055
  external pressure =       -0.15 kB  Pullay stress =        0.00 kB


 VOLUME and BASIS-vectors are now :
 -----------------------------------------------------------------------------
  energy-cutoff  :      400.00
  volume of cell :     8000.00
      direct lattice vectors                 reciprocal lattice vectors
    20.000000000  0.000000000  0.000000000     0.050000000  0.000000000  0.000000000
     0.000000000 20.000000000  0.000000000     0.000000000  0.050000000  0.000000000
     0.000000000  0.000000000 20.000000000     0.000000000  0.000000000  0.050000000

  length of vectors
    20.000000000 20.000000000 20.000000000     0.050000000  0.050000000  0.050000000


 FORCES acting on ions
    electron-ion (+dipol)            ewald-force                    non-local-force                 convergence-correction
 -----------------------------------------------------------------------------------------------
   -.108E+02 0.871E+02 -.171E+01   0.118E+02 -.953E+02 0.187E+01   -.105E+01 0.818E+01 -.162E+00   -.108E-06 0.202E-06 -.822E-07
   -.790E+02 -.382E+02 -.171E+01   0.864E+02 0.417E+02 0.187E+01   -.744E+01 -.355E+01 -.162E+00   -.230E-06 -.944E-08 -.824E-07
   0.551E+02 -.300E+02 0.210E+01   -.983E+02 0.535E+02 -.375E+01   0.431E+02 -.235E+02 0.165E+01   -.112E-05 0.722E-06 -.111E-05
 -----------------------------------------------------------------------------------------------
   -.347E+02 0.189E+02 -.132E+01   0.000E+00 0.000E+00 0.000E+00   0.346E+02 -.189E+02 0.133E+01   -.145E-05 0.916E-06 -.128E-05


 POSITION                                       TOTAL-FORCE (eV/Angst)
 -----------------------------------------------------------------------------------
      9.80755      9.62347     10.00000        -0.003391      0.009542     -0.002624
     10.54234     10.97263     10.00000        -0.008605     -0.002493     -0.002605
      9.65011     10.58390      9.98000         0.011996     -0.007049      0.005229
 -----------------------------------------------------------------------------------
    total drift:                               -0.008820      0.004878      0.006985


--------------------------------------------------------------------------------------------------------



  FREE ENERGIE OF THE ION-ELECTRON SYSTEM (eV)
  ---------------------------------------------------
  free  energy   TOTEN  =       -14.17514086 eV

  energy  without entropy=      -14.17514086  energy(sigma->0) =      -14.17514086

 d Force = 0.8313320E-08[-0.209E-03, 0.209E-03]  d Energy =-0.3303273E-07 0.413E-07
 d Force = 0.1370582E-04[ 0.150E+00,-0.150E+00]  d Ewald  = 0.1372321E-04-0.174E-07


--------------------------------------------------------------------------------------------------------


    POTLOK:  cpu time      0.1559: real time      0.1571


--------------------------------------------------------------------------------------------------------


 Finite differences progress:
  Degree of freedom:   9/  9
  Displacement:        2/  2
  Total:              18/ 18

 SECOND DERIVATIVES (NOT SYMMETRIZED)
 ------------------------------------
               1X          1Y          1Z          2X          2Y          2Z          3X          3Y          3Z 
  1X    -5.092724    5.462445   -0.000018   -0.006462    4.492551   -0.000010    5.099186   -9.954996    0.000028
  1Y     5.515488  -48.376178    0.000091   -1.346556    2.029582   -0.000004   -4.168931   46.346596   -0.000087
  1Z    -0.000020    0.000087   -0.019350   -0.000003    0.000009    0.000941    0.000024   -0.000096    0.018409
  2X    -0.014942   -1.350323   -0.000008  -40.608044  -17.473058   -0.000098   40.622986   18.823381    0.000106
  2Y     4.494497    2.025180    0.000021  -17.382339  -12.761239   -0.000028   12.887843   10.736060    0.000007
  2Z     0.000017   -0.000016    0.001076   -0.000052   -0.000032   -0.018424    0.000035    0.000048    0.017348
  3X     5.086553   -4.112514    0.000056   40.608652   12.983124    0.000091  -45.695205   -8.870609   -0.000147
  3Y   -10.011562   46.367500   -0.000118   18.735287   10.760674    0.000035   -8.723725  -57.128174    0.000083
  3Z     0.000017   -0.000095    0.131209    0.000086   -0.000010    0.130234   -0.000102    0.000105   -0.261444


 Eigenvectors and eigenvalues of the dynamical matrix
 ----------------------------------------------------


   1 f  =  114.391331 THz   718.741933 2PiTHz 3815.684097 cm-1   473.084321 meV
             X         Y         Z           dx          dy          dz
      9.807553  9.623466 10.000001    -0.110661    0.680262   -0.000001  
     10.542339 10.972632 10.000001     0.617262    0.267835    0.000001  
      9.650107 10.583902  9.999999    -0.126647   -0.237085    0.000000  

   2 f  =  110.957400 THz   697.165906 2PiTHz 3701.140476 cm-1   458.882728 meV
             X         Y         Z           dx          dy          dz
      9.807553  9.623466 10.000001     0.060332   -0.683158    0.000001  
     10.542339 10.972632 10.000001     0.621612    0.325908    0.000001  
      9.650107 10.583902  9.999999    -0.170474    0.089309   -0.000001  

   3 f  =   47.801517 THz   300.345790 2PiTHz 1594.486980 cm-1   197.691101 meV
             X         Y         Z           dx          dy          dz
      9.807553  9.623466 10.000001     0.674483    0.098019    0.000002  
     10.542339 10.972632 10.000001     0.282046   -0.617979    0.000000  
      9.650107 10.583902  9.999999    -0.238875    0.130214   -0.000001  

   4 f  =    3.256774 THz    20.462914 2PiTHz  108.634282 cm-1    13.468928 meV
             X         Y         Z           dx          dy          dz
      9.807553  9.623466 10.000001    -0.000167   -0.000011    0.520959  
     10.542339 10.972632 10.000001     0.000062   -0.000136    0.493444  
      9.650107 10.583902  9.999999    -0.000010    0.000057   -0.696501  

   5 f  =    2.204674 THz    13.852373 2PiTHz   73.539994 cm-1     9.117793 meV
             X         Y         Z           dx          dy          dz
      9.807553  9.623466 10.000001    -0.000185   -0.000000    0.700365  
     10.542339 10.972632 10.000001     0.000013   -0.000107   -0.713550  
      9.650107 10.583902  9.999999    -0.000178    0.000086    0.018326  

   6 f  =    0.785588 THz     4.935992 2PiTHz   26.204380 cm-1     3.248928 meV
             X         Y         Z           dx          dy          dz
      9.807553  9.623466 10.000001    -0.574822    0.089426   -0.000221  
     10.542339 10.972632 10.000001     0.129669   -0.295570    0.000139  
      9.650107 10.583902  9.999999    -0.294664    0.685989    0.000199  

   7 f/i=    0.015568 THz     0.097814 2PiTHz    0.519279 cm-1     0.064382 meV
             X         Y         Z           dx          dy          dz
      9.807553  9.623466 10.000001     0.198274    0.127006    0.000094  
     10.542339 10.972632 10.000001     0.198498    0.127168   -0.000112  
      9.650107 10.583902  9.999999     0.794280    0.508039   -0.000035  

   8 f/i=    0.792409 THz     4.978851 2PiTHz   26.431911 cm-1     3.277138 meV
             X         Y         Z           dx          dy          dz
      9.807553  9.623466 10.000001    -0.399317   -0.191840   -0.000040  
     10.542339 10.972632 10.000001     0.311161   -0.580187    0.000003  
      9.650107 10.583902  9.999999     0.424418   -0.436091    0.000171  

   9 f/i=    1.497237 THz     9.407419 2PiTHz   49.942458 cm-1     6.192073 meV
             X         Y         Z           dx          dy          dz
      9.807553  9.623466 10.000001    -0.000108   -0.000016   -0.487945  
     10.542339 10.972632 10.000001     0.000040   -0.000096   -0.497352  
      9.650107 10.583902  9.999999    -0.000014    0.000008   -0.717322  

 Finite differences POTIM=   2.0000000000000000E-002
     LOOP+:  cpu time     11.1298: real time     11.2726
    4ORBIT:  cpu time      0.0000: real time      0.0000

 total amount of memory used by VASP MPI-rank0    68972. kBytes
=======================================================================

   base      :      30000. kBytes
   nonl-proj :       6392. kBytes
   fftplans  :      18019. kBytes
   grid      :      13977. kBytes
   one-center:          3. kBytes
   wavefun   :        581. kBytes

  
  
 General timing and accounting informations for this job:
 ========================================================
  
                  Total CPU time used (sec):      220.889
                            User time (sec):      194.157
                          System time (sec):       26.732
                         Elapsed time (sec):      230.176
  
                   Maximum memory used (kb):      541472.
                   Average memory used (kb):          N/A
  
                          Minor page faults:       815468
                          Major page faults:           29
                 Voluntary context switches:        37537
