Cu  O Pt                                
   1.0000000000000000     
    11.1887137964146977    0.0000000000000000    0.0000000000000007
    -5.5943568982073524    9.6897103833685563    0.0000000000000007
     0.0000000000000000    0.0000000000000000   41.1099595188816593
  Cu/             O/              Pt/           
              12               1              84
Selective dynamics
Direct
  0.3333333333333357  0.1666666666666643  0.3585544345969893   F   F   F
  0.6666666666666643  0.8333333333333357  0.5807766568192108   F   F   F
  0.0000000000000000  0.0000000000000000  0.4696655457081036   F   F   F
  0.8333333333333357  0.6666666666666643  0.3585544345969893   F   F   F
  0.6666666666666643  0.3333333333333357  0.5807766568192108   F   F   F
  0.0000000000000000  0.5000000000000000  0.4696655457081036   F   F   F
  0.1666666666666643  0.8333333333333357  0.5807766568192108   F   F   F
  0.5000000000000000  0.0000000000000000  0.4696655457081036   F   F   F
  0.3333333333333357  0.6666666666666643  0.3585544345969893   F   F   F
  0.8333333333333357  0.1666666666666643  0.3585544345969893   F   F   F
  0.5000000000000000  0.5000000000000000  0.4696655457081036   F   F   F
  0.1666666666666643  0.3333333333333357  0.5807766568192108   F   F   F
  0.0841408046714715  0.4158895695304166  0.6642561742908486   T   T   T
  0.5833333333333357  0.9166666666666643  0.3585544345969893   F   F   F
  0.5833333333333357  0.4166666666666643  0.5252211012636536   F   F   F
  0.9166666666666643  0.0833333333333357  0.4141099901525465   F   F   F
  0.5833333333333357  0.4166666666666643  0.3585544345969893   F   F   F
  0.9166666666666643  0.0833333333333357  0.5807766568192108   F   F   F
  0.7500000000000000  0.2500000000000000  0.4696655457081036   F   F   F
  0.5833333333333357  0.1666666666666643  0.3585544345969893   F   F   F
  0.9166666666666643  0.3333333333333357  0.5807766568192108   F   F   F
  0.7440297760958791  0.2492133326402285  0.6350391352843228   T   T   T
  0.7500000000000000  0.5000000000000000  0.4696655457081036   F   F   F
  0.6666666666666643  0.0833333333333357  0.5807766568192108   F   F   F
  0.0000000000000000  0.2500000000000000  0.4696655457081036   F   F   F
  0.9969692833661963  0.2396336467293796  0.6359310623102434   T   T   T
  0.8333333333333357  0.4166666666666643  0.5252211012636536   F   F   F
  0.6666666666666643  0.0833333333333357  0.4141099901525465   F   F   F
  0.7467859272138759  0.4988575526184408  0.6356337430717062   T   T   T
  0.5833333333333357  0.1666666666666643  0.5252211012636536   F   F   F
  0.8333333333333357  0.4166666666666643  0.3585544345969893   F   F   F
  0.5031315005625127  0.5008543260921097  0.6365088115260455   T   T   T
  0.5833333333333357  0.9166666666666643  0.5252211012636536   F   F   F
  0.9166666666666643  0.3333333333333357  0.4141099901525465   F   F   F
  0.9166666666666643  0.5833333333333357  0.5807766568192108   F   F   F
  0.7500000000000000  0.7500000000000000  0.4696655457081036   F   F   F
  0.5833333333333357  0.6666666666666643  0.3585544345969893   F   F   F
  0.9166666666666643  0.8333333333333357  0.5807766568192108   F   F   F
  0.7500000000000000  0.0000000000000000  0.4696655457081036   F   F   F
  0.8333333333333357  0.9166666666666643  0.3585544345969893   F   F   F
  0.6666666666666643  0.5833333333333357  0.5807766568192108   F   F   F
  0.0000000000000000  0.7500000000000000  0.4696655457081036   F   F   F
  0.0012390892606248  0.7532907160932503  0.6356367779868792   T   T   T
  0.8333333333333357  0.9166666666666643  0.5252211012636536   F   F   F
  0.6666666666666643  0.5833333333333357  0.4141099901525465   F   F   F
  0.7469041991922096  0.9960798254038919  0.6354823077509689   T   T   T
  0.5833333333333357  0.6666666666666643  0.5252211012636536   F   F   F
  0.9166666666666643  0.8333333333333357  0.4141099901525465   F   F   F
  0.8333333333333357  0.6666666666666643  0.5252211012636536   F   F   F
  0.6666666666666643  0.8333333333333357  0.4141099901525465   F   F   F
  0.9992031721017131  0.9969210117325066  0.6365064259847483   T   T   T
  0.9166666666666643  0.5833333333333357  0.4141099901525465   F   F   F
  0.1666666666666643  0.0833333333333357  0.4141099901525465   F   F   F
  0.3333333333333357  0.4166666666666643  0.5252211012636536   F   F   F
  0.9943220145253530  0.5057215342103458  0.6367591352939370   T   T   T
  0.1666666666666643  0.8333333333333357  0.4141099901525465   F   F   F
  0.4997920631208186  0.0003793056799543  0.6368254239565636   T   T   T
  0.4166666666666643  0.3333333333333357  0.4141099901525465   F   F   F
  0.0833333333333357  0.1666666666666643  0.5252211012636536   F   F   F
  0.2604279290943494  0.5031226104640505  0.6359402305757322   T   T   T
  0.2522653132448432  0.2478072168329525  0.6355167278450891   T   T   T
  0.0833333333333357  0.4166666666666643  0.5252211012636536   F   F   F
  0.4166666666666643  0.0833333333333357  0.4141099901525465   F   F   F
  0.3333333333333357  0.6666666666666643  0.5252211012636536   F   F   F
  0.0833333333333357  0.4166666666666643  0.3585544345969893   F   F   F
  0.2500000000000000  0.2500000000000000  0.4696655457081036   F   F   F
  0.0833333333333357  0.1666666666666643  0.3585544345969893   F   F   F
  0.4166666666666643  0.3333333333333357  0.5807766568192108   F   F   F
  0.2500000000000000  0.5000000000000000  0.4696655457081036   F   F   F
  0.3333333333333357  0.4166666666666643  0.3585544345969893   F   F   F
  0.1666666666666643  0.0833333333333357  0.5807766568192108   F   F   F
  0.5000000000000000  0.2500000000000000  0.4696655457081036   F   F   F
  0.5014534280927043  0.2509607466908319  0.6358074840077019   T   T   T
  0.4166666666666643  0.0833333333333357  0.5807766568192108   F   F   F
  0.6666666666666643  0.3333333333333357  0.4141099901525465   F   F   F
  0.4166666666666643  0.8333333333333357  0.4141099901525465   F   F   F
  0.2491237695868802  0.9985972060910967  0.6358159925487985   T   T   T
  0.1666666666666643  0.3333333333333357  0.4141099901525465   F   F   F
  0.3333333333333357  0.1666666666666643  0.5252211012636536   F   F   F
  0.7489985816502165  0.7510702250010926  0.6359077852481114   T   T   T
  0.2508830553995681  0.7560573573261652  0.6350427073584348   T   T   T
  0.0833333333333357  0.9166666666666643  0.5252211012636536   F   F   F
  0.4166666666666643  0.5833333333333357  0.4141099901525465   F   F   F
  0.0833333333333357  0.9166666666666643  0.3585544345969893   F   F   F
  0.4166666666666643  0.5833333333333357  0.5807766568192108   F   F   F
  0.0833333333333357  0.6666666666666643  0.5252211012636536   F   F   F
  0.2500000000000000  0.7500000000000000  0.4696655457081036   F   F   F
  0.4166666666666643  0.8333333333333357  0.5807766568192108   F   F   F
  0.2500000000000000  0.0000000000000000  0.4696655457081036   F   F   F
  0.3333333333333357  0.9166666666666643  0.3585544345969893   F   F   F
  0.1666666666666643  0.5833333333333357  0.5807766568192108   F   F   F
  0.5000000000000000  0.7500000000000000  0.4696655457081036   F   F   F
  0.5040109050465016  0.7532151562574678  0.6354813796264381   T   T   T
  0.3333333333333357  0.9166666666666643  0.5252211012636536   F   F   F
  0.1666666666666643  0.5833333333333357  0.4141099901525465   F   F   F
  0.0833333333333357  0.6666666666666643  0.3585544345969893   F   F   F
  0.8333333333333357  0.1666666666666643  0.5252211012636536   F   F   F

  0.00000000E+00  0.00000000E+00  0.00000000E+00
  0.00000000E+00  0.00000000E+00  0.00000000E+00
  0.00000000E+00  0.00000000E+00  0.00000000E+00
  0.00000000E+00  0.00000000E+00  0.00000000E+00
  0.00000000E+00  0.00000000E+00  0.00000000E+00
  0.00000000E+00  0.00000000E+00  0.00000000E+00
  0.00000000E+00  0.00000000E+00  0.00000000E+00
  0.00000000E+00  0.00000000E+00  0.00000000E+00
  0.00000000E+00  0.00000000E+00  0.00000000E+00
  0.00000000E+00  0.00000000E+00  0.00000000E+00
  0.00000000E+00  0.00000000E+00  0.00000000E+00
  0.00000000E+00  0.00000000E+00  0.00000000E+00
  0.00000000E+00  0.00000000E+00  0.00000000E+00
  0.00000000E+00  0.00000000E+00  0.00000000E+00
  0.00000000E+00  0.00000000E+00  0.00000000E+00
  0.00000000E+00  0.00000000E+00  0.00000000E+00
  0.00000000E+00  0.00000000E+00  0.00000000E+00
  0.00000000E+00  0.00000000E+00  0.00000000E+00
  0.00000000E+00  0.00000000E+00  0.00000000E+00
  0.00000000E+00  0.00000000E+00  0.00000000E+00
  0.00000000E+00  0.00000000E+00  0.00000000E+00
  0.00000000E+00  0.00000000E+00  0.00000000E+00
  0.00000000E+00  0.00000000E+00  0.00000000E+00
  0.00000000E+00  0.00000000E+00  0.00000000E+00
  0.00000000E+00  0.00000000E+00  0.00000000E+00
  0.00000000E+00  0.00000000E+00  0.00000000E+00
  0.00000000E+00  0.00000000E+00  0.00000000E+00
  0.00000000E+00  0.00000000E+00  0.00000000E+00
  0.00000000E+00  0.00000000E+00  0.00000000E+00
  0.00000000E+00  0.00000000E+00  0.00000000E+00
  0.00000000E+00  0.00000000E+00  0.00000000E+00
  0.00000000E+00  0.00000000E+00  0.00000000E+00
  0.00000000E+00  0.00000000E+00  0.00000000E+00
  0.00000000E+00  0.00000000E+00  0.00000000E+00
  0.00000000E+00  0.00000000E+00  0.00000000E+00
  0.00000000E+00  0.00000000E+00  0.00000000E+00
  0.00000000E+00  0.00000000E+00  0.00000000E+00
  0.00000000E+00  0.00000000E+00  0.00000000E+00
  0.00000000E+00  0.00000000E+00  0.00000000E+00
  0.00000000E+00  0.00000000E+00  0.00000000E+00
  0.00000000E+00  0.00000000E+00  0.00000000E+00
  0.00000000E+00  0.00000000E+00  0.00000000E+00
  0.00000000E+00  0.00000000E+00  0.00000000E+00
  0.00000000E+00  0.00000000E+00  0.00000000E+00
  0.00000000E+00  0.00000000E+00  0.00000000E+00
  0.00000000E+00  0.00000000E+00  0.00000000E+00
  0.00000000E+00  0.00000000E+00  0.00000000E+00
  0.00000000E+00  0.00000000E+00  0.00000000E+00
  0.00000000E+00  0.00000000E+00  0.00000000E+00
  0.00000000E+00  0.00000000E+00  0.00000000E+00
  0.00000000E+00  0.00000000E+00  0.00000000E+00
  0.00000000E+00  0.00000000E+00  0.00000000E+00
  0.00000000E+00  0.00000000E+00  0.00000000E+00
  0.00000000E+00  0.00000000E+00  0.00000000E+00
  0.00000000E+00  0.00000000E+00  0.00000000E+00
  0.00000000E+00  0.00000000E+00  0.00000000E+00
  0.00000000E+00  0.00000000E+00  0.00000000E+00
  0.00000000E+00  0.00000000E+00  0.00000000E+00
  0.00000000E+00  0.00000000E+00  0.00000000E+00
  0.00000000E+00  0.00000000E+00  0.00000000E+00
  0.00000000E+00  0.00000000E+00  0.00000000E+00
  0.00000000E+00  0.00000000E+00  0.00000000E+00
  0.00000000E+00  0.00000000E+00  0.00000000E+00
  0.00000000E+00  0.00000000E+00  0.00000000E+00
  0.00000000E+00  0.00000000E+00  0.00000000E+00
  0.00000000E+00  0.00000000E+00  0.00000000E+00
  0.00000000E+00  0.00000000E+00  0.00000000E+00
  0.00000000E+00  0.00000000E+00  0.00000000E+00
  0.00000000E+00  0.00000000E+00  0.00000000E+00
  0.00000000E+00  0.00000000E+00  0.00000000E+00
  0.00000000E+00  0.00000000E+00  0.00000000E+00
  0.00000000E+00  0.00000000E+00  0.00000000E+00
  0.00000000E+00  0.00000000E+00  0.00000000E+00
  0.00000000E+00  0.00000000E+00  0.00000000E+00
  0.00000000E+00  0.00000000E+00  0.00000000E+00
  0.00000000E+00  0.00000000E+00  0.00000000E+00
  0.00000000E+00  0.00000000E+00  0.00000000E+00
  0.00000000E+00  0.00000000E+00  0.00000000E+00
  0.00000000E+00  0.00000000E+00  0.00000000E+00
  0.00000000E+00  0.00000000E+00  0.00000000E+00
  0.00000000E+00  0.00000000E+00  0.00000000E+00
  0.00000000E+00  0.00000000E+00  0.00000000E+00
  0.00000000E+00  0.00000000E+00  0.00000000E+00
  0.00000000E+00  0.00000000E+00  0.00000000E+00
  0.00000000E+00  0.00000000E+00  0.00000000E+00
  0.00000000E+00  0.00000000E+00  0.00000000E+00
  0.00000000E+00  0.00000000E+00  0.00000000E+00
  0.00000000E+00  0.00000000E+00  0.00000000E+00
  0.00000000E+00  0.00000000E+00  0.00000000E+00
  0.00000000E+00  0.00000000E+00  0.00000000E+00
  0.00000000E+00  0.00000000E+00  0.00000000E+00
  0.00000000E+00  0.00000000E+00  0.00000000E+00
  0.00000000E+00  0.00000000E+00  0.00000000E+00
  0.00000000E+00  0.00000000E+00  0.00000000E+00
  0.00000000E+00  0.00000000E+00  0.00000000E+00
  0.00000000E+00  0.00000000E+00  0.00000000E+00
  0.00000000E+00  0.00000000E+00  0.00000000E+00
