 O Pt                                   
   1.0000000000000000     
     8.4637688330671441    0.0000000000000000    0.0000000000000005
    -4.2318844165335747    7.3298388211951195    0.0000000000000005
     0.0000000000000000    0.0000000000000000   34.5531915698098757
  O/              Pt/           
               1              54
Selective dynamics
Direct
  0.1111397089116233  0.2222377475020512  0.6979027181394737   T   T   T
  0.5555555555555571  0.4444444444444429  0.6000000000000014   F   F   F
  0.3333333333333357  0.0000000000000000  0.4666666666666686   F   F   F
  0.4444444444444429  0.8888888888888857  0.3333333333333357   F   F   F
  0.5555555555555571  0.7777777777777786  0.3999999999999986   F   F   F
  0.3349281736734378  0.9984080018099163  0.6657369624085189   T   T   T
  0.4444444444444429  0.8888888888888857  0.5333333333333314   F   F   F
  0.5555555555555571  0.7777777777777786  0.6000000000000014   F   F   F
  0.6666666666666643  0.3333333333333357  0.4666666666666686   F   F   F
  0.7777777777777786  0.2222222222222214  0.3333333333333357   F   F   F
  0.8888888888888857  0.1111111111111143  0.3999999999999986   F   F   F
  0.6672569999885274  0.3345537555956750  0.6667407612136461   T   T   T
  0.4444444444444429  0.5555555555555571  0.5333333333333314   F   F   F
  0.7777777777777786  0.2222222222222214  0.5333333333333314   F   F   F
  0.6666666666666643  0.6666666666666643  0.4666666666666686   F   F   F
  0.7777777777777786  0.5555555555555571  0.3333333333333357   F   F   F
  0.8888888888888857  0.4444444444444429  0.3999999999999986   F   F   F
  0.6673276903328602  0.6661032403338317  0.6667436192679418   T   T   T
  0.7777777777777786  0.5555555555555571  0.5333333333333314   F   F   F
  0.8888888888888857  0.4444444444444429  0.6000000000000014   F   F   F
  0.6666666666666643  0.0000000000000000  0.4666666666666686   F   F   F
  0.7777777777777786  0.8888888888888857  0.3333333333333357   F   F   F
  0.8888888888888857  0.7777777777777786  0.3999999999999986   F   F   F
  0.6634975857548751  0.9984127130974307  0.6657364066656368   T   T   T
  0.7777777777777786  0.8888888888888857  0.5333333333333314   F   F   F
  0.8888888888888857  0.1111111111111143  0.6000000000000014   F   F   F
  0.8888888888888857  0.7777777777777786  0.6000000000000014   F   F   F
  0.0000000000000000  0.3333333333333357  0.4666666666666686   F   F   F
  0.4444444444444429  0.5555555555555571  0.3333333333333357   F   F   F
  0.1111111111111143  0.2222222222222214  0.3333333333333357   F   F   F
  0.2222222222222214  0.1111111111111143  0.3999999999999986   F   F   F
  0.9907311420616103  0.3426244290547956  0.6674372188127309   T   T   T
  0.1111111111111143  0.2222222222222214  0.5333333333333314   F   F   F
  0.2222222222222214  0.1111111111111143  0.6000000000000014   F   F   F
  0.0000000000000000  0.6666666666666643  0.4666666666666686   F   F   F
  0.1111111111111143  0.5555555555555571  0.3333333333333357   F   F   F
  0.2222222222222214  0.4444444444444429  0.3999999999999986   F   F   F
  0.9988250185000546  0.6660504905846215  0.6667536078309159   T   T   T
  0.1111111111111143  0.5555555555555571  0.5333333333333314   F   F   F
  0.2222222222222214  0.4444444444444429  0.6000000000000014   F   F   F
  0.5555555555555571  0.4444444444444429  0.3999999999999986   F   F   F
  0.0000000000000000  0.0000000000000000  0.4666666666666686   F   F   F
  0.2222222222222214  0.7777777777777786  0.3999999999999986   F   F   F
  0.9907331213613900  0.9814648799757252  0.6674400005567686   T   T   T
  0.1111111111111143  0.8888888888888857  0.5333333333333314   F   F   F
  0.2222222222222214  0.7777777777777786  0.6000000000000014   F   F   F
  0.3333333333333357  0.3333333333333357  0.4666666666666686   F   F   F
  0.4444444444444429  0.2222222222222214  0.3333333333333357   F   F   F
  0.5555555555555571  0.1111111111111143  0.3999999999999986   F   F   F
  0.3519440578071223  0.3426194218101498  0.6674364679341239   T   T   T
  0.4444444444444429  0.2222222222222214  0.5333333333333314   F   F   F
  0.5555555555555571  0.1111111111111143  0.6000000000000014   F   F   F
  0.3333333333333357  0.6666666666666643  0.4666666666666686   F   F   F
  0.1111111111111143  0.8888888888888857  0.3333333333333357   F   F   F
  0.3349308346641106  0.6698261496130130  0.6657311583452313   T   T   T

  0.00000000E+00  0.00000000E+00  0.00000000E+00
  0.00000000E+00  0.00000000E+00  0.00000000E+00
  0.00000000E+00  0.00000000E+00  0.00000000E+00
  0.00000000E+00  0.00000000E+00  0.00000000E+00
  0.00000000E+00  0.00000000E+00  0.00000000E+00
  0.00000000E+00  0.00000000E+00  0.00000000E+00
  0.00000000E+00  0.00000000E+00  0.00000000E+00
  0.00000000E+00  0.00000000E+00  0.00000000E+00
  0.00000000E+00  0.00000000E+00  0.00000000E+00
  0.00000000E+00  0.00000000E+00  0.00000000E+00
  0.00000000E+00  0.00000000E+00  0.00000000E+00
  0.00000000E+00  0.00000000E+00  0.00000000E+00
  0.00000000E+00  0.00000000E+00  0.00000000E+00
  0.00000000E+00  0.00000000E+00  0.00000000E+00
  0.00000000E+00  0.00000000E+00  0.00000000E+00
  0.00000000E+00  0.00000000E+00  0.00000000E+00
  0.00000000E+00  0.00000000E+00  0.00000000E+00
  0.00000000E+00  0.00000000E+00  0.00000000E+00
  0.00000000E+00  0.00000000E+00  0.00000000E+00
  0.00000000E+00  0.00000000E+00  0.00000000E+00
  0.00000000E+00  0.00000000E+00  0.00000000E+00
  0.00000000E+00  0.00000000E+00  0.00000000E+00
  0.00000000E+00  0.00000000E+00  0.00000000E+00
  0.00000000E+00  0.00000000E+00  0.00000000E+00
  0.00000000E+00  0.00000000E+00  0.00000000E+00
  0.00000000E+00  0.00000000E+00  0.00000000E+00
  0.00000000E+00  0.00000000E+00  0.00000000E+00
  0.00000000E+00  0.00000000E+00  0.00000000E+00
  0.00000000E+00  0.00000000E+00  0.00000000E+00
  0.00000000E+00  0.00000000E+00  0.00000000E+00
  0.00000000E+00  0.00000000E+00  0.00000000E+00
  0.00000000E+00  0.00000000E+00  0.00000000E+00
  0.00000000E+00  0.00000000E+00  0.00000000E+00
  0.00000000E+00  0.00000000E+00  0.00000000E+00
  0.00000000E+00  0.00000000E+00  0.00000000E+00
  0.00000000E+00  0.00000000E+00  0.00000000E+00
  0.00000000E+00  0.00000000E+00  0.00000000E+00
  0.00000000E+00  0.00000000E+00  0.00000000E+00
  0.00000000E+00  0.00000000E+00  0.00000000E+00
  0.00000000E+00  0.00000000E+00  0.00000000E+00
  0.00000000E+00  0.00000000E+00  0.00000000E+00
  0.00000000E+00  0.00000000E+00  0.00000000E+00
  0.00000000E+00  0.00000000E+00  0.00000000E+00
  0.00000000E+00  0.00000000E+00  0.00000000E+00
  0.00000000E+00  0.00000000E+00  0.00000000E+00
  0.00000000E+00  0.00000000E+00  0.00000000E+00
  0.00000000E+00  0.00000000E+00  0.00000000E+00
  0.00000000E+00  0.00000000E+00  0.00000000E+00
  0.00000000E+00  0.00000000E+00  0.00000000E+00
  0.00000000E+00  0.00000000E+00  0.00000000E+00
  0.00000000E+00  0.00000000E+00  0.00000000E+00
  0.00000000E+00  0.00000000E+00  0.00000000E+00
  0.00000000E+00  0.00000000E+00  0.00000000E+00
  0.00000000E+00  0.00000000E+00  0.00000000E+00
  0.00000000E+00  0.00000000E+00  0.00000000E+00
