 H                                      
   1.0000000000000000     
    20.0000000000000000    0.0000000000000000    0.0000000000000000
     0.0000000000000000   20.0000000000000000    0.0000000000000000
     0.0000000000000000    0.0000000000000000   20.0000000000000000
  H/            
               2
Direct
  0.4792126358481878  0.4999999999995849  0.5000000000834786
  0.5207873641518123  0.5000000000004150  0.4999999999165213

  0.00000000E+00  0.00000000E+00  0.00000000E+00
  0.00000000E+00  0.00000000E+00  0.00000000E+00
