 vasp.6.4.2 20Jul23 (build Dec  7 2023 18:18:25) complex                         
 executed on             LinuxGNU date 2026.03.14  19:52:26
 running  128 mpi-ranks, with    1 threads/rank, on    1 nodes
 distrk:  each k-point on  128 cores,    1 groups
 distr:  one band on NCORE=   4 cores,   32 groups


--------------------------------------------------------------------------------------------------------


 INCAR:
   SYSTEM = Bare Pt 111 (RPBE-D3)
   PREC = Normal
   ENCUT = 400
   EDIFF = 1E-6
   EDIFFG = -0.02
   GGA = RP
   IVDW = 11
   ISPIN = 1
   NELM = 200
   ISMEAR = 0
   SIGMA = 0.1
   ISYM = 0
   LREAL = Auto
   LDIPOL = .TRUE.
   IDIPOL = 3
   DIPOL = 0.5 0.5 0.5
   LWAVE = .FALSE.
   LCHARG = .FALSE.
   NCORE = 4
   LASPH = .TRUE.
   AMIN = 0.01
   ADDGRID = .TRUE.
   LSOL = .TRUE.
   EB_K = 80.0
   IBRION = 2
   NSW = 200
   ISIF = 2
   POTIM = 0.3

 POTCAR:    PAW_PBE H 15Jun2001                   
 POTCAR:    PAW_PBE H 15Jun2001                   
   VRHFIN =H: ultrasoft test                                                                        
   LEXCH  = PE                                                                                      
   EATOM  =    12.4884 eV,    0.9179 Ry                                                             
                                                                                                    
   TITEL  = PAW_PBE H 15Jun2001                                                                     
   LULTRA =        F    use ultrasoft PP ?                                                          
   IUNSCR =        0    unscreen: 0-lin 1-nonlin 2-no                                               
   RPACOR =    0.000    partial core radius                                                         
   POMASS =    1.000; ZVAL   =    1.000    mass and valenz                                          
   RCORE  =    1.100    outmost cutoff radius                                                       
   RWIGS  =    0.700; RWIGS  =    0.370    wigner-seitz radius (au A)                               
   ENMAX  =  250.000; ENMIN  =  200.000 eV                                                          
   RCLOC  =    0.701    cutoff for local pot                                                        
   LCOR   =        T    correct aug charges                                                         
   LPAW   =        T    paw PP                                                                      
   EAUG   =  400.000                                                                                
   RMAX   =    1.123    core radius for proj-oper                                                   
   RAUG   =    1.200    factor for augmentation sphere                                              
   RDEP   =    1.112    radius for radial grids                                                     
   RDEPT  =    0.926    core radius for aug-charge                                                  
                                                                                                    
   Atomic configuration                                                                             
    2 entries                                                                                       
     n  l   j            E        occ.                                                              
     1  0  0.50        -6.4927   1.0000                                                             
     2  1  0.50        -3.4015   0.0000                                                             
   Description                                                                                      
     l       E           TYP  RCUT    TYP  RCUT                                                     
     0     -6.4927494     23  1.100                                                                 
     0      6.8029130     23  1.100                                                                 
     1     -4.0817478     23  1.100                                                                 
  local pseudopotential read in
  atomic valenz-charges read in
  non local Contribution for L=           0  read in
    real space projection operators read in
  non local Contribution for L=           0  read in
    real space projection operators read in
  non local Contribution for L=           1  read in
    real space projection operators read in
    PAW grid and wavefunctions read in

   number of l-projection  operators is LMAX  =           3
   number of lm-projection operators is LMMAX =           5

 -----------------------------------------------------------------------------
|                                                                             |
|               ----> ADVICE to this user running VASP <----                  |
|                                                                             |
|     You have a (more or less) 'small supercell' and for smaller cells       |
|     it is recommended to use the reciprocal-space projection scheme!        |
|     The real-space optimization is not efficient for small cells and it     |
|     is also less accurate ...                                               |
|     Therefore, set LREAL=.FALSE. in the INCAR file.                         |
|                                                                             |
 -----------------------------------------------------------------------------

 Optimization of the real space projectors (new method)

 maximal supplied QI-value         = 34.20
 optimisation between [QCUT,QGAM] = [  9.92, 20.18] = [ 27.55,114.04] Ry 
 Optimized for a Real-space Cutoff    1.26 Angstroem

   l    n(q)    QCUT    max X(q) W(low)/X(q) W(high)/X(q)  e(spline) 
   0      8     9.919    19.460    0.50E-03    0.23E-03    0.29E-06
   0      8     9.919    12.209    0.48E-03    0.23E-03    0.28E-06
   1      7     9.919     4.655    0.17E-03    0.75E-03    0.30E-06
 -----------------------------------------------------------------------------
|                                                                             |
|               ----> ADVICE to this user running VASP <----                  |
|                                                                             |
|     You enforced a specific xc type in the INCAR file but a different       |
|     type was found in the POTCAR file.                                      |
|     I HOPE YOU KNOW WHAT YOU ARE DOING!                                     |
|                                                                             |
 -----------------------------------------------------------------------------

  PAW_PBE H 15Jun2001                   :
 energy of atom  1       EATOM=  -12.4884
 kinetic energy error for atom=    0.0098 (will be added to EATOM!!)


 POSCAR:  H
  positions in direct lattice
  velocities in cartesian coordinates
 exchange correlation table for  LEXCH =        9
   RHO(1)=    0.500       N(1)  =     2000
   RHO(2)=  100.500       N(2)  =     4000

 VTST: version 4.1, (05/19/21)

 CHAIN: initializing optimizer
 
 OPT: Using VASP Conjugate-Gradient optimizer
 CHAIN: Read ICHAIN            0

 POSCAR:  H
  positions in direct lattice
  velocities in cartesian coordinates



--------------------------------------------------------------------------------------------------------


 ion  position               nearest neighbor table
   1  0.481  0.500  0.500-   2 0.75
   2  0.519  0.500  0.500-   1 0.75


IMPORTANT INFORMATION: All symmetrisations will be switched off!
NOSYMM: (Re-)initialisation of all symmetry stuff for point group C_1.


----------------------------------------------------------------------------------------

                                     Primitive cell                                     

  volume of cell :    8000.0000

  direct lattice vectors                    reciprocal lattice vectors
    20.000000000  0.000000000  0.000000000     0.050000000  0.000000000  0.000000000
     0.000000000 20.000000000  0.000000000     0.000000000  0.050000000  0.000000000
     0.000000000  0.000000000 20.000000000     0.000000000  0.000000000  0.050000000

  length of vectors
    20.000000000 20.000000000 20.000000000     0.050000000  0.050000000  0.050000000

  position of ions in fractional coordinates (direct lattice)
     0.481318011  0.500000000  0.500000000
     0.518681989  0.500000000  0.500000000

  ion indices of the primitive-cell ions
   primitive index   ion index
                 1           1
                 2           2

----------------------------------------------------------------------------------------



 KPOINTS: Regular 4 x 4 x 1 mesh centered at Gamma

Automatic generation of k-mesh.
 Grid dimensions read from file:
 generate k-points for:    1    1    1

 Generating k-lattice:

  Cartesian coordinates                     Fractional coordinates (reciprocal lattice)
     0.050000000  0.000000000  0.000000000     1.000000000  0.000000000  0.000000000
     0.000000000  0.050000000  0.000000000     0.000000000  1.000000000  0.000000000
     0.000000000  0.000000000  0.050000000     0.000000000  0.000000000  1.000000000

  Length of vectors
     0.050000000  0.050000000  0.050000000

  Shift w.r.t. Gamma in fractional coordinates (k-lattice)
     0.000000000  0.000000000  0.000000000

 
 Subroutine IBZKPT returns following result:
 ===========================================
 
 Found      1 irreducible k-points:
 
 Following reciprocal coordinates:
            Coordinates               Weight
  0.000000  0.000000  0.000000      1.000000
 
 Following cartesian coordinates:
            Coordinates               Weight
  0.000000  0.000000  0.000000      1.000000
 


--------------------------------------------------------------------------------------------------------




 Dimension of arrays:
   k-points           NKPTS =      1   k-points in BZ     NKDIM =      1   number of bands    NBANDS=     32
   number of dos      NEDOS =    301   number of ions     NIONS =      2
   non local maximal  LDIM  =      3   non local SUM 2l+1 LMDIM =      5
   total plane-waves  NPLWV = 941192
   max r-space proj   IRMAX =   1043   max aug-charges    IRDMAX=   4774
   dimension x,y,z NGX =    98 NGY =   98 NGZ =   98
   dimension x,y,z NGXF=   196 NGYF=  196 NGZF=  196
   support grid    NGXF=   392 NGYF=  392 NGZF=  392
   ions per type =               2
   NGX,Y,Z   is equivalent  to a cutoff of   8.15,  8.15,  8.15 a.u.
   NGXF,Y,Z  is equivalent  to a cutoff of  16.29, 16.29, 16.29 a.u.

 SYSTEM =  Bare Pt 111 (RPBE-D3)                   
 POSCAR =   H                                      

 Startparameter for this run:
   NWRITE =      2    write-flag & timer
   PREC   = normal    normal or accurate (medium, high low for compatibility)
   ISTART =      0    job   : 0-new  1-cont  2-samecut
   ICHARG =      2    charge: 1-file 2-atom 10-const
   ISPIN  =      1    spin polarized calculation?
   LNONCOLLINEAR =      F non collinear calculations
   LSORBIT =      F    spin-orbit coupling
   INIWAV =      1    electr: 0-lowe 1-rand  2-diag
   LASPH  =      T    aspherical Exc in radial PAW
 Electronic Relaxation 1
   ENCUT  =  400.0 eV  29.40 Ry    5.42 a.u.  32.61 32.61 32.61*2*pi/ulx,y,z
   ENINI  =  400.0     initial cutoff
   ENAUG  =  400.0 eV  augmentation charge cutoff
   NELM   =    200;   NELMIN=  2; NELMDL=  0     # of ELM steps 
   EDIFF  = 0.1E-05   stopping-criterion for ELM
   LREAL  =      T    real-space projection
   NLSPLINE    = F    spline interpolate recip. space projectors
   LCOMPAT=      F    compatible to vasp.4.4
   GGA_COMPAT  = T    GGA compatible to vasp.4.4-vasp.4.6
   LMAXPAW     = -100 max onsite density
   LMAXMIX     =    2 max onsite mixed and CHGCAR
   VOSKOWN=      0    Vosko Wilk Nusair interpolation
   ROPT   =   -0.00050
 Ionic relaxation
   EDIFFG = -.2E-01   stopping-criterion for IOM
   NSW    =    200    number of steps for IOM
   NBLOCK =      1;   KBLOCK =    200    inner block; outer block 
   IBRION =      2    ionic relax: 0-MD 1-quasi-New 2-CG
   NFREE  =      1    steps in history (QN), initial steepest desc. (CG)
   ISIF   =      2    stress and relaxation
   IWAVPR =     11    prediction:  0-non 1-charg 2-wave 3-comb
   ISYM   =      0    0-nonsym 1-usesym 2-fastsym
   LCORR  =      T    Harris-Foulkes like correction to forces

   POTIM  = 0.3000    time-step for ionic-motion
   TEIN   =    0.0    initial temperature
   TEBEG  =    0.0;   TEEND  =   0.0 temperature during run
   SMASS  =  -3.00    Nose mass-parameter (am)
   estimated Nose-frequenzy (Omega)   =  0.10E-29 period in steps = 0.21E+47 mass=  -0.914E-26a.u.
   SCALEE = 1.0000    scale energy and forces
   NPACO  =    256;   APACO  = 10.0  distance and # of slots for P.C.
   PSTRESS=    0.0 pullay stress

  Mass of Ions in am
   POMASS =   1.00
  Ionic Valenz
   ZVAL   =   1.00
  Atomic Wigner-Seitz radii
   RWIGS  =  -1.00
  virtual crystal weights 
   VCA    =   1.00
   NELECT =       2.0000    total number of electrons
   NUPDOWN=      -1.0000    fix difference up-down

 DOS related values:
   EMIN   =  10.00;   EMAX   =-10.00  energy-range for DOS
   EFERMI =   0.00;   METHOD = LEGACY      
   ISMEAR =     0;   SIGMA  =   0.10  broadening in eV -4-tet -1-fermi 0-gaus

 Electronic relaxation 2 (details)
   IALGO  =     38    algorithm
   LDIAG  =      T    sub-space diagonalisation (order eigenvalues)
   LSUBROT=      F    optimize rotation matrix (better conditioning)
   TURBO    =      0    0=normal 1=particle mesh
   IRESTART =      0    0=no restart 2=restart with 2 vectors
   NREBOOT  =      0    no. of reboots
   NMIN     =      0    reboot dimension
   EREF     =   0.00    reference energy to select bands
   IMIX   =      4    mixing-type and parameters
     AMIX     =   0.40;   BMIX     =  1.00
     AMIX_MAG =   1.60;   BMIX_MAG =  1.00
     AMIN     =   0.01
     WC   =   100.;   INIMIX=   1;  MIXPRE=   1;  MAXMIX= -45

 Intra band minimization:
   WEIMIN = 0.0010     energy-eigenvalue tresh-hold
   EBREAK =  0.78E-08  absolut break condition
   DEPER  =   0.30     relativ break condition  

   TIME   =   0.40     timestep for ELM

  volume/ion in A,a.u.               =    4000.00     26993.33
  Fermi-wavevector in a.u.,A,eV,Ry     =   0.103131  0.194889  0.144711  0.010636
  Thomas-Fermi vector in A             =   0.684775

 Write flags
   LWAVE        =      F    write WAVECAR
   LDOWNSAMPLE  =      F    k-point downsampling of WAVECAR
   LCHARG       =      F    write CHGCAR
   LVTOT        =      F    write LOCPOT, total local potential
   LVHAR        =      F    write LOCPOT, Hartree potential only
   LELF         =      F    write electronic localiz. function (ELF)
   LORBIT       =      0    0 simple, 1 ext, 2 COOP (PROOUT), +10 PAW based schemes


 Dipole corrections
   LMONO  =      F    monopole corrections only (constant potential shift)
   LDIPOL =      T    correct potential (dipole corrections)
   IDIPOL =      3    1-x, 2-y, 3-z, 4-all directions 
   EPSILON=  1.0000000 bulk dielectric constant

 Exchange correlation treatment:
   GGA     =    RP    GGA type
   LEXCH   =     9    internal setting for exchange type
   LIBXC   =     F    Libxc                    
   VOSKOWN =     0    Vosko Wilk Nusair interpolation
   LHFCALC =     F    Hartree Fock is set to
   LHFONE  =     F    Hartree Fock one center treatment
   AEXX    =    0.0000 exact exchange contribution

 Linear response parameters
   LEPSILON=     F    determine dielectric tensor
   LRPA    =     F    only Hartree local field effects (RPA)
   LNABLA  =     F    use nabla operator in PAW spheres
   LVEL    =     F    velocity operator in full k-point grid
   CSHIFT  =0.1000    complex shift for real part using Kramers Kronig
   OMEGAMAX=  -1.0    maximum frequency
   DEG_THRESHOLD= 0.2000000E-02 threshold for treating states as degnerate
   RTIME   =   -0.100 relaxation time in fs
  (WPLASMAI=    0.000 imaginary part of plasma frequency in eV, 0.658/RTIME)
   DFIELD  = 0.0000000 0.0000000 0.0000000 field for delta impulse in time

  Optional k-point grid parameters
   LKPOINTS_OPT  =     F    use optional k-point grid
   KPOINTS_OPT_MODE=     1    mode for optional k-point grid

 Orbital magnetization related:
   ORBITALMAG=     F  switch on orbital magnetization
   LCHIMAG   =     F  perturbation theory with respect to B field
   DQ        =  0.001000  dq finite difference perturbation B field
   LLRAUG    =     F  two centre corrections for induced B field
   LBONE     =     F  B-component reconstruction in AE one-centre
   LVGVCALC  =     T  calculate vGv susceptibility
   LVGVAPPL  =     F  apply vGv susceptibility instead of pGv for G=0

 Random number generation:
   RANDOM_GENERATOR = DEFAULT
   PCG_SEED         = not used
 Solvation model:
   LSOL    =     T         switch on solvation model
   EB_K    = 80.000000     relative permittivity of the bulk solvent
   SIGMA_K =  0.600000     width of the dielectric cavity
   NC_K    =  0.002500     cutoff charge density
   TAU     =  0.000525     cavity surface tension
   LAMBDA_D_K    =**********     Debye length in Angstroms
   LRHOB     =     F     write boundcharge  density
   LRHOION     =     F     write ioniccharge density



--------------------------------------------------------------------------------------------------------


 conjugate gradient relaxation of ions
 charge density and potential will be updated during run
 non-spin polarized calculation
 Variant of blocked Davidson
 Davidson routine will perform the subspace rotation
 perform sub-space diagonalisation
    after iterative eigenvector-optimisation
 modified Broyden-mixing scheme, WC =      100.0
 initial mixing is a Kerker type mixing with AMIX =  0.4000 and BMIX =      1.0000
 Hartree-type preconditioning will be used
 using additional bands           31
 real space projection scheme for non local part
 calculate Harris-corrections to forces   (improved forces if not selfconsistent)
 use gradient corrections 
 use of overlap-Matrix (Vanderbilt PP)
 Gauss-broadening in eV      SIGMA  =   0.10


--------------------------------------------------------------------------------------------------------


  energy-cutoff  :      400.00
  volume of cell :     8000.00
      direct lattice vectors                 reciprocal lattice vectors
    20.000000000  0.000000000  0.000000000     0.050000000  0.000000000  0.000000000
     0.000000000 20.000000000  0.000000000     0.000000000  0.050000000  0.000000000
     0.000000000  0.000000000 20.000000000     0.000000000  0.000000000  0.050000000

  length of vectors
    20.000000000 20.000000000 20.000000000     0.050000000  0.050000000  0.050000000



 k-points in units of 2pi/SCALE and weight: Regular 4 x 4 x 1 mesh centered at Gamma
   0.00000000  0.00000000  0.00000000       1.000

 k-points in reciprocal lattice and weights: Regular 4 x 4 x 1 mesh centered at Gamma
   0.00000000  0.00000000  0.00000000       1.000

 position of ions in fractional coordinates (direct lattice) 
   0.48131801  0.50000000  0.50000000
   0.51868199  0.50000000  0.50000000

 position of ions in cartesian coordinates  (Angst):
   9.62636021 10.00000000 10.00000000
  10.37363979 10.00000000 10.00000000



--------------------------------------------------------------------------------------------------------


 k-point   1 :   0.0000 0.0000 0.0000  plane waves:  145165

 maximum and minimum number of plane-waves per node :     36308    36275

 maximum number of plane-waves:    145165
 maximum index in each direction: 
   IXMAX=   32   IYMAX=   32   IZMAX=   32
   IXMIN=  -32   IYMIN=  -32   IZMIN=  -32


 real space projection operators:
  total allocation   :         75.94 KBytes
  max/ min on nodes  :         20.23         17.11


 parallel 3D FFT for wavefunctions:
    minimum data exchange during FFTs selected (reduces bandwidth)
 parallel 3D FFT for charge:
    minimum data exchange during FFTs selected (reduces bandwidth)


 total amount of memory used by VASP MPI-rank0    62014. kBytes
=======================================================================

   base      :      30000. kBytes
   nonlr-proj:         57. kBytes
   fftplans  :      18019. kBytes
   grid      :      13356. kBytes
   one-center:          1. kBytes
   wavefun   :        581. kBytes

     INWAV:  cpu time      0.0000: real time      0.0000
 Broyden mixing: mesh for mixing (old mesh)
   NGX = 65   NGY = 65   NGZ = 65
  (NGX  =196   NGY  =196   NGZ  =196)
  gives a total of 274625 points

 initial charge density was supplied:
 charge density of overlapping atoms calculated
 number of electron       2.0000000 magnetization 
 keeping initial charge density in first step


--------------------------------------------------------------------------------------------------------


 Maximum index for non-local projection operator          247
 Maximum index for augmentation-charges            0 (set IRDMAX)


--------------------------------------------------------------------------------------------------------


 First call to EWALD:  gamma=   0.089
 Maximum number of real-space cells 3x 3x 3
 Maximum number of reciprocal cells 3x 3x 3

    FEWALD:  cpu time      0.0011: real time      0.0012


--------------------------------------- Ionic step        1  -------------------------------------------




--------------------------------------- Iteration      1(   1)  ---------------------------------------


    POTLOK:  cpu time      3.4266: real time      3.4645
    SETDIJ:  cpu time      0.0879: real time      0.0920
     EDDAV:  cpu time      0.2658: real time      0.2701
       DOS:  cpu time      0.0015: real time      0.0015
    --------------------------------------------
      LOOP:  cpu time      3.7818: real time      3.8282

 eigenvalue-minimisations  :    96
 total energy-change (2. order) :-0.3392353E+01  (-0.2765796E+02)
 number of electron       2.0000000 magnetization 
 augmentation part        2.0000000 magnetization 

 DIPCOR: dipole corrections for dipol
 direction  3 min pos     1,
 dipolmoment           0.000000      0.000000      0.000000 electrons x Angstroem
 Tr[quadrupol]      -384.810741

 energy correction for charged system         0.000000 eV
 dipol+quadrupol energy correction           -0.000000 eV
 added-field ion interaction          0.000000 eV  (added to PSCEN)


 Free energy of the ion-electron system (eV)
  ---------------------------------------------------
  alpha Z        PSCENC =         0.00121808
  Ewald energy   TEWEN  =        15.18607296
  -Hartree energ DENC   =       -24.60310816
  -exchange      EXHF   =         0.00000000
  -V(xc)+E(xc)   XCENC  =         4.24448361
  PAW double counting   =         4.09787275       -4.11636859
  entropy T*S    EENTRO =        -0.00000000
  eigenvalues    EBANDS =       -22.46935325
  atomic energy  EATOM  =        25.06705842
  Solvation  Ediel_sol  =        -0.80022902
  ---------------------------------------------------
  free energy    TOTEN  =        -3.39235320 eV

  energy without entropy =       -3.39235320  energy(sigma->0) =       -3.39235320


--------------------------------------------------------------------------------------------------------




--------------------------------------- Iteration      1(   2)  ---------------------------------------


     EDDAV:  cpu time      0.1790: real time      0.1812
       DOS:  cpu time      0.0003: real time      0.0003
    --------------------------------------------
      LOOP:  cpu time      0.1793: real time      0.1814

 eigenvalue-minimisations  :    64
 total energy-change (2. order) :-0.3910516E+01  (-0.3910516E+01)
 number of electron       2.0000000 magnetization 
 augmentation part        2.0000000 magnetization 

 DIPCOR: dipole corrections for dipol
 direction  3 min pos     1,
 dipolmoment           0.000000      0.000000      0.000000 electrons x Angstroem
 Tr[quadrupol]      -384.810741

 energy correction for charged system         0.000000 eV
 dipol+quadrupol energy correction           -0.000000 eV
 added-field ion interaction          0.000000 eV  (added to PSCEN)


 Free energy of the ion-electron system (eV)
  ---------------------------------------------------
  alpha Z        PSCENC =         0.00121808
  Ewald energy   TEWEN  =        15.18607296
  -Hartree energ DENC   =       -24.60310816
  -exchange      EXHF   =         0.00000000
  -V(xc)+E(xc)   XCENC  =         4.24448361
  PAW double counting   =         4.09787275       -4.11636859
  entropy T*S    EENTRO =        -0.00000000
  eigenvalues    EBANDS =       -26.37986908
  atomic energy  EATOM  =        25.06705842
  Solvation  Ediel_sol  =        -0.80022902
  ---------------------------------------------------
  free energy    TOTEN  =        -7.30286903 eV

  energy without entropy =       -7.30286903  energy(sigma->0) =       -7.30286903


--------------------------------------------------------------------------------------------------------




--------------------------------------- Iteration      1(   3)  ---------------------------------------


     EDDAV:  cpu time      0.2589: real time      0.2628
       DOS:  cpu time      0.0004: real time      0.0004
    --------------------------------------------
      LOOP:  cpu time      0.2593: real time      0.2632

 eigenvalue-minimisations  :    96
 total energy-change (2. order) :-0.4069028E-01  (-0.4069028E-01)
 number of electron       2.0000000 magnetization 
 augmentation part        2.0000000 magnetization 

 DIPCOR: dipole corrections for dipol
 direction  3 min pos     1,
 dipolmoment           0.000000      0.000000      0.000000 electrons x Angstroem
 Tr[quadrupol]      -384.810741

 energy correction for charged system         0.000000 eV
 dipol+quadrupol energy correction           -0.000000 eV
 added-field ion interaction          0.000000 eV  (added to PSCEN)


 Free energy of the ion-electron system (eV)
  ---------------------------------------------------
  alpha Z        PSCENC =         0.00121808
  Ewald energy   TEWEN  =        15.18607296
  -Hartree energ DENC   =       -24.60310816
  -exchange      EXHF   =         0.00000000
  -V(xc)+E(xc)   XCENC  =         4.24448361
  PAW double counting   =         4.09787275       -4.11636859
  entropy T*S    EENTRO =        -0.00000000
  eigenvalues    EBANDS =       -26.42055936
  atomic energy  EATOM  =        25.06705842
  Solvation  Ediel_sol  =        -0.80022902
  ---------------------------------------------------
  free energy    TOTEN  =        -7.34355932 eV

  energy without entropy =       -7.34355932  energy(sigma->0) =       -7.34355932


--------------------------------------------------------------------------------------------------------




--------------------------------------- Iteration      1(   4)  ---------------------------------------


     EDDAV:  cpu time      0.1772: real time      0.1799
       DOS:  cpu time      0.0008: real time      0.0008
    --------------------------------------------
      LOOP:  cpu time      0.1780: real time      0.1807

 eigenvalue-minimisations  :    64
 total energy-change (2. order) :-0.1463644E-04  (-0.1463644E-04)
 number of electron       2.0000000 magnetization 
 augmentation part        2.0000000 magnetization 

 DIPCOR: dipole corrections for dipol
 direction  3 min pos     1,
 dipolmoment           0.000000      0.000000      0.000000 electrons x Angstroem
 Tr[quadrupol]      -384.810741

 energy correction for charged system         0.000000 eV
 dipol+quadrupol energy correction           -0.000000 eV
 added-field ion interaction          0.000000 eV  (added to PSCEN)


 Free energy of the ion-electron system (eV)
  ---------------------------------------------------
  alpha Z        PSCENC =         0.00121808
  Ewald energy   TEWEN  =        15.18607296
  -Hartree energ DENC   =       -24.60310816
  -exchange      EXHF   =         0.00000000
  -V(xc)+E(xc)   XCENC  =         4.24448361
  PAW double counting   =         4.09787275       -4.11636859
  entropy T*S    EENTRO =        -0.00000000
  eigenvalues    EBANDS =       -26.42057400
  atomic energy  EATOM  =        25.06705842
  Solvation  Ediel_sol  =        -0.80022902
  ---------------------------------------------------
  free energy    TOTEN  =        -7.34357395 eV

  energy without entropy =       -7.34357395  energy(sigma->0) =       -7.34357395


--------------------------------------------------------------------------------------------------------




--------------------------------------- Iteration      1(   5)  ---------------------------------------


     EDDAV:  cpu time      0.3469: real time      0.3506
       DOS:  cpu time      0.0005: real time      0.0005
    CHARGE:  cpu time      0.0622: real time      0.0632
    MIXING:  cpu time      0.0060: real time      0.0064
    --------------------------------------------
      LOOP:  cpu time      0.4157: real time      0.4207

 eigenvalue-minimisations  :   128
 total energy-change (2. order) :-0.6574988E-07  (-0.6574954E-07)
 number of electron       2.0000001 magnetization 
 augmentation part        0.0453813 magnetization 

 DIPCOR: dipole corrections for dipol
 direction  3 min pos     1,
 dipolmoment           0.000000      0.000000      0.000000 electrons x Angstroem
 Tr[quadrupol]      -384.810741

 energy correction for charged system         0.000000 eV
 dipol+quadrupol energy correction           -0.000000 eV
 added-field ion interaction          0.000000 eV  (added to PSCEN)


 Broyden mixing:
  rms(total) = 0.42083E+00    rms(broyden)= 0.42070E+00
  rms(prec ) = 0.45446E+00
  weight for this iteration     100.00

 Free energy of the ion-electron system (eV)
  ---------------------------------------------------
  alpha Z        PSCENC =         0.00121808
  Ewald energy   TEWEN  =        15.18607296
  -Hartree energ DENC   =       -24.60310816
  -exchange      EXHF   =         0.00000000
  -V(xc)+E(xc)   XCENC  =         4.24448361
  PAW double counting   =         4.09787275       -4.11636859
  entropy T*S    EENTRO =        -0.00000000
  eigenvalues    EBANDS =       -26.42057407
  atomic energy  EATOM  =        25.06705842
  Solvation  Ediel_sol  =        -0.80022902
  ---------------------------------------------------
  free energy    TOTEN  =        -7.34357402 eV

  energy without entropy =       -7.34357402  energy(sigma->0) =       -7.34357402


--------------------------------------------------------------------------------------------------------




--------------------------------------- Iteration      1(   6)  ---------------------------------------


    POTLOK:  cpu time      3.5146: real time      3.5483
    SETDIJ:  cpu time      0.0877: real time      0.0884
     EDDAV:  cpu time      0.1776: real time      0.1796
       DOS:  cpu time      0.0003: real time      0.0003
    CHARGE:  cpu time      0.0566: real time      0.0572
    MIXING:  cpu time      0.0028: real time      0.0028
    --------------------------------------------
      LOOP:  cpu time      3.8397: real time      3.8766

 eigenvalue-minimisations  :    64
 total energy-change (2. order) : 0.5579676E+00  (-0.1892668E+00)
 number of electron       2.0000001 magnetization 
 augmentation part        0.0410036 magnetization 

 DIPCOR: dipole corrections for dipol
 direction  3 min pos     1,
 dipolmoment           0.000000      0.000000      0.000000 electrons x Angstroem
 Tr[quadrupol]      -384.808169

 energy correction for charged system         0.000000 eV
 dipol+quadrupol energy correction           -0.000000 eV
 added-field ion interaction          0.000000 eV  (added to PSCEN)


 Broyden mixing:
  rms(total) = 0.17328E+00    rms(broyden)= 0.17322E+00
  rms(prec ) = 0.18966E+00
  weight for this iteration     100.00

 eigenvalues of (default mixing * dielectric matrix)
  average eigenvalue GAMMA=   1.5738
  1.5738

 Free energy of the ion-electron system (eV)
  ---------------------------------------------------
  alpha Z        PSCENC =         0.00121808
  Ewald energy   TEWEN  =        15.18607296
  -Hartree energ DENC   =       -26.99565127
  -exchange      EXHF   =         0.00000000
  -V(xc)+E(xc)   XCENC  =         4.57535833
  PAW double counting   =        10.49040880      -10.52246071
  entropy T*S    EENTRO =        -0.00000000
  eigenvalues    EBANDS =       -22.51413928
  atomic energy  EATOM  =        25.06705842
  Solvation  Ediel_sol  =        -2.07347175
  ---------------------------------------------------
  free energy    TOTEN  =        -6.78560642 eV

  energy without entropy =       -6.78560642  energy(sigma->0) =       -6.78560642


--------------------------------------------------------------------------------------------------------




--------------------------------------- Iteration      1(   7)  ---------------------------------------


    POTLOK:  cpu time      4.1300: real time      4.2823
    SETDIJ:  cpu time      0.1011: real time      0.1018
     EDDAV:  cpu time      0.2690: real time      0.2731
       DOS:  cpu time      0.0004: real time      0.0004
    CHARGE:  cpu time      0.0540: real time      0.0551
    MIXING:  cpu time      0.0021: real time      0.0022
    --------------------------------------------
      LOOP:  cpu time      4.5566: real time      4.7147

 eigenvalue-minimisations  :    96
 total energy-change (2. order) :-0.1553425E-01  (-0.1428383E-01)
 number of electron       2.0000000 magnetization 
 augmentation part        0.0396066 magnetization 

 DIPCOR: dipole corrections for dipol
 direction  3 min pos     1,
 dipolmoment           0.000000      0.000000     -0.000000 electrons x Angstroem
 Tr[quadrupol]      -384.811286

 energy correction for charged system         0.000000 eV
 dipol+quadrupol energy correction           -0.000000 eV
 added-field ion interaction          0.000000 eV  (added to PSCEN)


 Broyden mixing:
  rms(total) = 0.49908E-01    rms(broyden)= 0.49872E-01
  rms(prec ) = 0.56286E-01
  weight for this iteration     100.00

 eigenvalues of (default mixing * dielectric matrix)
  average eigenvalue GAMMA=   1.7631
  1.1307  2.3956

 Free energy of the ion-electron system (eV)
  ---------------------------------------------------
  alpha Z        PSCENC =         0.00121808
  Ewald energy   TEWEN  =        15.18607296
  -Hartree energ DENC   =       -29.04389101
  -exchange      EXHF   =         0.00000000
  -V(xc)+E(xc)   XCENC  =         4.87395809
  PAW double counting   =        18.00782843      -18.05024017
  entropy T*S    EENTRO =        -0.00000000
  eigenvalues    EBANDS =       -20.56053366
  atomic energy  EATOM  =        25.06705842
  Solvation  Ediel_sol  =        -2.28261182
  ---------------------------------------------------
  free energy    TOTEN  =        -6.80114067 eV

  energy without entropy =       -6.80114067  energy(sigma->0) =       -6.80114067


--------------------------------------------------------------------------------------------------------




--------------------------------------- Iteration      1(   8)  ---------------------------------------


    POTLOK:  cpu time      3.3769: real time      3.4117
    SETDIJ:  cpu time      0.0878: real time      0.0888
     EDDAV:  cpu time      0.2539: real time      0.2568
       DOS:  cpu time      0.0004: real time      0.0004
    CHARGE:  cpu time      0.0545: real time      0.0557
    MIXING:  cpu time      0.0016: real time      0.0016
    --------------------------------------------
      LOOP:  cpu time      3.7751: real time      3.8149

 eigenvalue-minimisations  :    96
 total energy-change (2. order) :-0.2323300E-01  (-0.2919791E-02)
 number of electron       2.0000000 magnetization 
 augmentation part        0.0389686 magnetization 

 DIPCOR: dipole corrections for dipol
 direction  3 min pos     1,
 dipolmoment           0.000000      0.000000     -0.000000 electrons x Angstroem
 Tr[quadrupol]      -384.813790

 energy correction for charged system         0.000000 eV
 dipol+quadrupol energy correction           -0.000000 eV
 added-field ion interaction          0.000000 eV  (added to PSCEN)


 Broyden mixing:
  rms(total) = 0.15567E-01    rms(broyden)= 0.15548E-01
  rms(prec ) = 0.17854E-01
  weight for this iteration     100.00

 eigenvalues of (default mixing * dielectric matrix)
  average eigenvalue GAMMA=   2.2741
  1.0484  3.2621  2.5118

 Free energy of the ion-electron system (eV)
  ---------------------------------------------------
  alpha Z        PSCENC =         0.00121808
  Ewald energy   TEWEN  =        15.18607296
  -Hartree energ DENC   =       -30.17240146
  -exchange      EXHF   =         0.00000000
  -V(xc)+E(xc)   XCENC  =         5.03517806
  PAW double counting   =        22.34890103      -22.39546475
  entropy T*S    EENTRO =        -0.00000000
  eigenvalues    EBANDS =       -19.71930648
  atomic energy  EATOM  =        25.06705842
  Solvation  Ediel_sol  =        -2.17562953
  ---------------------------------------------------
  free energy    TOTEN  =        -6.82437367 eV

  energy without entropy =       -6.82437367  energy(sigma->0) =       -6.82437367


--------------------------------------------------------------------------------------------------------




--------------------------------------- Iteration      1(   9)  ---------------------------------------


    POTLOK:  cpu time      3.1334: real time      3.1660
    SETDIJ:  cpu time      0.0877: real time      0.0884
     EDDAV:  cpu time      0.2561: real time      0.2590
       DOS:  cpu time      0.0007: real time      0.0007
    CHARGE:  cpu time      0.0545: real time      0.0558
    MIXING:  cpu time      0.0019: real time      0.0019
    --------------------------------------------
      LOOP:  cpu time      3.5343: real time      3.5719

 eigenvalue-minimisations  :    96
 total energy-change (2. order) : 0.3355656E-01  (-0.9683402E-03)
 number of electron       2.0000000 magnetization 
 augmentation part        0.0391552 magnetization 

 DIPCOR: dipole corrections for dipol
 direction  3 min pos     1,
 dipolmoment           0.000000      0.000000      0.000000 electrons x Angstroem
 Tr[quadrupol]      -384.819329

 energy correction for charged system         0.000000 eV
 dipol+quadrupol energy correction           -0.000000 eV
 added-field ion interaction          0.000000 eV  (added to PSCEN)


 Broyden mixing:
  rms(total) = 0.10985E-01    rms(broyden)= 0.10983E-01
  rms(prec ) = 0.12189E-01
  weight for this iteration     100.00

 eigenvalues of (default mixing * dielectric matrix)
  average eigenvalue GAMMA=   1.8407
  3.1411  2.3875  1.0867  0.7474

 Free energy of the ion-electron system (eV)
  ---------------------------------------------------
  alpha Z        PSCENC =         0.00121808
  Ewald energy   TEWEN  =        15.18607296
  -Hartree energ DENC   =       -30.26209684
  -exchange      EXHF   =         0.00000000
  -V(xc)+E(xc)   XCENC  =         5.03354837
  PAW double counting   =        21.70792031      -21.75169940
  entropy T*S    EENTRO =        -0.00000000
  eigenvalues    EBANDS =       -19.92028642
  atomic energy  EATOM  =        25.06705842
  Solvation  Ediel_sol  =        -1.85255260
  ---------------------------------------------------
  free energy    TOTEN  =        -6.79081710 eV

  energy without entropy =       -6.79081710  energy(sigma->0) =       -6.79081710


--------------------------------------------------------------------------------------------------------




--------------------------------------- Iteration      1(  10)  ---------------------------------------


    POTLOK:  cpu time      2.8865: real time      2.9159
    SETDIJ:  cpu time      0.0876: real time      0.0883
     EDDAV:  cpu time      0.1759: real time      0.1789
       DOS:  cpu time      0.0003: real time      0.0003
    CHARGE:  cpu time      0.0546: real time      0.0557
    MIXING:  cpu time      0.0019: real time      0.0019
    --------------------------------------------
      LOOP:  cpu time      3.2067: real time      3.2410

 eigenvalue-minimisations  :    64
 total energy-change (2. order) :-0.1141555E-01  (-0.1846713E-03)
 number of electron       2.0000000 magnetization 
 augmentation part        0.0390243 magnetization 

 DIPCOR: dipole corrections for dipol
 direction  3 min pos     1,
 dipolmoment           0.000000      0.000000      0.000000 electrons x Angstroem
 Tr[quadrupol]      -384.821759

 energy correction for charged system         0.000000 eV
 dipol+quadrupol energy correction           -0.000000 eV
 added-field ion interaction          0.000000 eV  (added to PSCEN)


 Broyden mixing:
  rms(total) = 0.35257E-02    rms(broyden)= 0.35234E-02
  rms(prec ) = 0.48397E-02
  weight for this iteration     100.00

 eigenvalues of (default mixing * dielectric matrix)
  average eigenvalue GAMMA=   2.2493
  3.5127  3.5127  2.2580  0.8718  1.0915

 Free energy of the ion-electron system (eV)
  ---------------------------------------------------
  alpha Z        PSCENC =         0.00121808
  Ewald energy   TEWEN  =        15.18607296
  -Hartree energ DENC   =       -30.35583540
  -exchange      EXHF   =         0.00000000
  -V(xc)+E(xc)   XCENC  =         5.04552684
  PAW double counting   =        21.98805256      -22.03246517
  entropy T*S    EENTRO =        -0.00000000
  eigenvalues    EBANDS =       -19.81592016
  atomic energy  EATOM  =        25.06705842
  Solvation  Ediel_sol  =        -1.88594079
  ---------------------------------------------------
  free energy    TOTEN  =        -6.80223266 eV

  energy without entropy =       -6.80223266  energy(sigma->0) =       -6.80223266


--------------------------------------------------------------------------------------------------------




--------------------------------------- Iteration      1(  11)  ---------------------------------------


    POTLOK:  cpu time      2.9380: real time      2.9685
    SETDIJ:  cpu time      0.0871: real time      0.0878
     EDDAV:  cpu time      0.2535: real time      0.2565
       DOS:  cpu time      0.0004: real time      0.0004
    CHARGE:  cpu time      0.0542: real time      0.0553
    MIXING:  cpu time      0.0018: real time      0.0018
    --------------------------------------------
      LOOP:  cpu time      3.3350: real time      3.3703

 eigenvalue-minimisations  :    96
 total energy-change (2. order) :-0.1142060E-01  (-0.1605669E-03)
 number of electron       2.0000000 magnetization 
 augmentation part        0.0389106 magnetization 

 DIPCOR: dipole corrections for dipol
 direction  3 min pos     1,
 dipolmoment           0.000000      0.000000     -0.000000 electrons x Angstroem
 Tr[quadrupol]      -384.836517

 energy correction for charged system         0.000000 eV
 dipol+quadrupol energy correction           -0.000000 eV
 added-field ion interaction          0.000000 eV  (added to PSCEN)


 Broyden mixing:
  rms(total) = 0.29327E-02    rms(broyden)= 0.29289E-02
  rms(prec ) = 0.34728E-02
  weight for this iteration     100.00

 eigenvalues of (default mixing * dielectric matrix)
  average eigenvalue GAMMA=   2.0449
  4.1069  2.7394  2.3063  1.0255  1.0255  1.0661

 Free energy of the ion-electron system (eV)
  ---------------------------------------------------
  alpha Z        PSCENC =         0.00121808
  Ewald energy   TEWEN  =        15.18607296
  -Hartree energ DENC   =       -30.46831693
  -exchange      EXHF   =         0.00000000
  -V(xc)+E(xc)   XCENC  =         5.05426763
  PAW double counting   =        21.95062178      -21.99553136
  entropy T*S    EENTRO =        -0.00000000
  eigenvalues    EBANDS =       -19.77342623
  atomic energy  EATOM  =        25.06705842
  Solvation  Ediel_sol  =        -1.83561762
  ---------------------------------------------------
  free energy    TOTEN  =        -6.81365326 eV

  energy without entropy =       -6.81365326  energy(sigma->0) =       -6.81365326


--------------------------------------------------------------------------------------------------------




--------------------------------------- Iteration      1(  12)  ---------------------------------------


    POTLOK:  cpu time      2.7796: real time      2.8089
    SETDIJ:  cpu time      0.0870: real time      0.0877
     EDDAV:  cpu time      0.3384: real time      0.3421
       DOS:  cpu time      0.0003: real time      0.0003
    CHARGE:  cpu time      0.0536: real time      0.0549
    MIXING:  cpu time      0.0018: real time      0.0019
    --------------------------------------------
      LOOP:  cpu time      3.2608: real time      3.2958

 eigenvalue-minimisations  :   128
 total energy-change (2. order) : 0.3042940E-02  (-0.1882634E-04)
 number of electron       2.0000000 magnetization 
 augmentation part        0.0389400 magnetization 

 DIPCOR: dipole corrections for dipol
 direction  3 min pos     1,
 dipolmoment           0.000000      0.000000     -0.000000 electrons x Angstroem
 Tr[quadrupol]      -384.844282

 energy correction for charged system         0.000000 eV
 dipol+quadrupol energy correction           -0.000000 eV
 added-field ion interaction          0.000000 eV  (added to PSCEN)


 Broyden mixing:
  rms(total) = 0.11035E-02    rms(broyden)= 0.11031E-02
  rms(prec ) = 0.18638E-02
  weight for this iteration     100.00

 eigenvalues of (default mixing * dielectric matrix)
  average eigenvalue GAMMA=   2.3581
  5.3128  3.5018  2.5176  2.0830  1.1783  0.9566  0.9566

 Free energy of the ion-electron system (eV)
  ---------------------------------------------------
  alpha Z        PSCENC =         0.00121808
  Ewald energy   TEWEN  =        15.18607296
  -Hartree energ DENC   =       -30.48815551
  -exchange      EXHF   =         0.00000000
  -V(xc)+E(xc)   XCENC  =         5.05584456
  PAW double counting   =        22.01389424      -22.05869562
  entropy T*S    EENTRO =        -0.00000000
  eigenvalues    EBANDS =       -19.78981911
  atomic energy  EATOM  =        25.06705842
  Solvation  Ediel_sol  =        -1.79802835
  ---------------------------------------------------
  free energy    TOTEN  =        -6.81061032 eV

  energy without entropy =       -6.81061032  energy(sigma->0) =       -6.81061032


--------------------------------------------------------------------------------------------------------




--------------------------------------- Iteration      1(  13)  ---------------------------------------


    POTLOK:  cpu time      3.0165: real time      3.0479
    SETDIJ:  cpu time      0.0875: real time      0.0882
     EDDAV:  cpu time      0.1779: real time      0.1803
       DOS:  cpu time      0.0004: real time      0.0004
    CHARGE:  cpu time      0.0542: real time      0.0553
    MIXING:  cpu time      0.0081: real time      0.0081
    --------------------------------------------
      LOOP:  cpu time      3.3445: real time      3.3803

 eigenvalue-minimisations  :    64
 total energy-change (2. order) : 0.5361536E-03  (-0.2812278E-04)
 number of electron       2.0000000 magnetization 
 augmentation part        0.0389609 magnetization 

 DIPCOR: dipole corrections for dipol
 direction  3 min pos     1,
 dipolmoment           0.000000      0.000000     -0.000000 electrons x Angstroem
 Tr[quadrupol]      -384.868153

 energy correction for charged system         0.000000 eV
 dipol+quadrupol energy correction           -0.000000 eV
 added-field ion interaction          0.000000 eV  (added to PSCEN)


 Broyden mixing:
  rms(total) = 0.59486E-03    rms(broyden)= 0.59424E-03
  rms(prec ) = 0.11048E-02
  weight for this iteration     100.00

 eigenvalues of (default mixing * dielectric matrix)
  average eigenvalue GAMMA=   2.6260
  6.5049  4.3544  2.9156  2.3877  1.7495  1.1712  0.9817  0.9433

 Free energy of the ion-electron system (eV)
  ---------------------------------------------------
  alpha Z        PSCENC =         0.00121808
  Ewald energy   TEWEN  =        15.18607296
  -Hartree energ DENC   =       -30.48370832
  -exchange      EXHF   =         0.00000000
  -V(xc)+E(xc)   XCENC  =         5.05280361
  PAW double counting   =        21.98122166      -22.02590264
  entropy T*S    EENTRO =        -0.00000000
  eigenvalues    EBANDS =       -19.81804764
  atomic energy  EATOM  =        25.06705842
  Solvation  Ediel_sol  =        -1.77079031
  ---------------------------------------------------
  free energy    TOTEN  =        -6.81007417 eV

  energy without entropy =       -6.81007417  energy(sigma->0) =       -6.81007417


--------------------------------------------------------------------------------------------------------




--------------------------------------- Iteration      1(  14)  ---------------------------------------


    POTLOK:  cpu time      2.6659: real time      2.6942
    SETDIJ:  cpu time      0.0877: real time      0.0887
     EDDAV:  cpu time      0.1819: real time      0.1846
       DOS:  cpu time      0.0005: real time      0.0005
    CHARGE:  cpu time      0.0538: real time      0.0549
    MIXING:  cpu time      0.0021: real time      0.0021
    --------------------------------------------
      LOOP:  cpu time      2.9919: real time      3.0249

 eigenvalue-minimisations  :    64
 total energy-change (2. order) :-0.1226181E-02  (-0.1115183E-04)
 number of electron       2.0000000 magnetization 
 augmentation part        0.0389435 magnetization 

 DIPCOR: dipole corrections for dipol
 direction  3 min pos     1,
 dipolmoment           0.000000      0.000000     -0.000000 electrons x Angstroem
 Tr[quadrupol]      -384.898549

 energy correction for charged system         0.000000 eV
 dipol+quadrupol energy correction           -0.000000 eV
 added-field ion interaction          0.000000 eV  (added to PSCEN)


 Broyden mixing:
  rms(total) = 0.32621E-03    rms(broyden)= 0.32565E-03
  rms(prec ) = 0.69656E-03
  weight for this iteration     100.00

 eigenvalues of (default mixing * dielectric matrix)
  average eigenvalue GAMMA=   2.6570
  7.5987  4.3812  3.1450  2.4853  2.1149  1.2120  0.9336  0.9774  1.0651

 Free energy of the ion-electron system (eV)
  ---------------------------------------------------
  alpha Z        PSCENC =         0.00121808
  Ewald energy   TEWEN  =        15.18607296
  -Hartree energ DENC   =       -30.48604806
  -exchange      EXHF   =         0.00000000
  -V(xc)+E(xc)   XCENC  =         5.05196817
  PAW double counting   =        21.95601114      -22.00065568
  entropy T*S    EENTRO =        -0.00000000
  eigenvalues    EBANDS =       -19.81277998
  atomic energy  EATOM  =        25.06705842
  Solvation  Ediel_sol  =        -1.77414541
  ---------------------------------------------------
  free energy    TOTEN  =        -6.81130035 eV

  energy without entropy =       -6.81130035  energy(sigma->0) =       -6.81130035


--------------------------------------------------------------------------------------------------------




--------------------------------------- Iteration      1(  15)  ---------------------------------------


    POTLOK:  cpu time      4.3486: real time      4.5876
    SETDIJ:  cpu time      0.0890: real time      0.0898
     EDDAV:  cpu time      0.2640: real time      0.2672
       DOS:  cpu time      0.0004: real time      0.0004
    CHARGE:  cpu time      0.0537: real time      0.0549
    MIXING:  cpu time      0.0022: real time      0.0022
    --------------------------------------------
      LOOP:  cpu time      4.7578: real time      5.0020

 eigenvalue-minimisations  :    96
 total energy-change (2. order) : 0.1603543E-03  (-0.9627916E-06)
 number of electron       2.0000000 magnetization 
 augmentation part        0.0389449 magnetization 

 DIPCOR: dipole corrections for dipol
 direction  3 min pos     1,
 dipolmoment           0.000000      0.000000     -0.000000 electrons x Angstroem
 Tr[quadrupol]      -384.921409

 energy correction for charged system         0.000000 eV
 dipol+quadrupol energy correction           -0.000000 eV
 added-field ion interaction          0.000000 eV  (added to PSCEN)


 Broyden mixing:
  rms(total) = 0.20372E-03    rms(broyden)= 0.20366E-03
  rms(prec ) = 0.51088E-03
  weight for this iteration     100.00

 eigenvalues of (default mixing * dielectric matrix)
  average eigenvalue GAMMA=   3.0084
  9.8086  5.1604  3.9525  2.8012  2.3942  1.8810  1.1789  0.9309  0.9884  0.9884

 Free energy of the ion-electron system (eV)
  ---------------------------------------------------
  alpha Z        PSCENC =         0.00121808
  Ewald energy   TEWEN  =        15.18607296
  -Hartree energ DENC   =       -30.49664672
  -exchange      EXHF   =         0.00000000
  -V(xc)+E(xc)   XCENC  =         5.05266326
  PAW double counting   =        21.95871909      -22.00339673
  entropy T*S    EENTRO =        -0.00000000
  eigenvalues    EBANDS =       -19.81177447
  atomic energy  EATOM  =        25.06705842
  Solvation  Ediel_sol  =        -1.76505388
  ---------------------------------------------------
  free energy    TOTEN  =        -6.81113999 eV

  energy without entropy =       -6.81113999  energy(sigma->0) =       -6.81113999


--------------------------------------------------------------------------------------------------------




--------------------------------------- Iteration      1(  16)  ---------------------------------------


    POTLOK:  cpu time      2.6680: real time      2.6960
    SETDIJ:  cpu time      0.0872: real time      0.0879
     EDDAV:  cpu time      0.1780: real time      0.1804
       DOS:  cpu time      0.0006: real time      0.0006
    CHARGE:  cpu time      0.0541: real time      0.0552
    MIXING:  cpu time      0.0022: real time      0.0022
    --------------------------------------------
      LOOP:  cpu time      2.9901: real time      3.0223

 eigenvalue-minimisations  :    64
 total energy-change (2. order) : 0.5372790E-03  (-0.2696562E-05)
 number of electron       2.0000000 magnetization 
 augmentation part        0.0389563 magnetization 

 DIPCOR: dipole corrections for dipol
 direction  3 min pos     1,
 dipolmoment           0.000000      0.000000     -0.000000 electrons x Angstroem
 Tr[quadrupol]      -384.956619

 energy correction for charged system         0.000000 eV
 dipol+quadrupol energy correction           -0.000000 eV
 added-field ion interaction          0.000000 eV  (added to PSCEN)


 Broyden mixing:
  rms(total) = 0.35766E-03    rms(broyden)= 0.35711E-03
  rms(prec ) = 0.47566E-03
  weight for this iteration     100.00

 eigenvalues of (default mixing * dielectric matrix)
  average eigenvalue GAMMA=   3.3005
 11.8759  6.1639  3.8135  3.8135  2.6484  2.3187  1.5910  1.1628  0.9403  0.9889
  0.9889

 Free energy of the ion-electron system (eV)
  ---------------------------------------------------
  alpha Z        PSCENC =         0.00121808
  Ewald energy   TEWEN  =        15.18607296
  -Hartree energ DENC   =       -30.50220373
  -exchange      EXHF   =         0.00000000
  -V(xc)+E(xc)   XCENC  =         5.05266762
  PAW double counting   =        21.96918394      -22.01389349
  entropy T*S    EENTRO =        -0.00000000
  eigenvalues    EBANDS =       -19.81589442
  atomic energy  EATOM  =        25.06705842
  Solvation  Ediel_sol  =        -1.75481210
  ---------------------------------------------------
  free energy    TOTEN  =        -6.81060272 eV

  energy without entropy =       -6.81060272  energy(sigma->0) =       -6.81060272


--------------------------------------------------------------------------------------------------------




--------------------------------------- Iteration      1(  17)  ---------------------------------------


    POTLOK:  cpu time      2.6717: real time      2.6995
    SETDIJ:  cpu time      0.0872: real time      0.0880
     EDDAV:  cpu time      0.1779: real time      0.1806
       DOS:  cpu time      0.0004: real time      0.0004
    CHARGE:  cpu time      0.0549: real time      0.0561
    MIXING:  cpu time      0.0023: real time      0.0023
    --------------------------------------------
      LOOP:  cpu time      2.9944: real time      3.0269

 eigenvalue-minimisations  :    64
 total energy-change (2. order) :-0.1273109E-02  (-0.5613072E-05)
 number of electron       2.0000000 magnetization 
 augmentation part        0.0389373 magnetization 

 DIPCOR: dipole corrections for dipol
 direction  3 min pos     1,
 dipolmoment           0.000000      0.000000     -0.000000 electrons x Angstroem
 Tr[quadrupol]      -384.980673

 energy correction for charged system         0.000000 eV
 dipol+quadrupol energy correction           -0.000000 eV
 added-field ion interaction          0.000000 eV  (added to PSCEN)


 Broyden mixing:
  rms(total) = 0.37865E-03    rms(broyden)= 0.37769E-03
  rms(prec ) = 0.44252E-03
  weight for this iteration     100.00

 eigenvalues of (default mixing * dielectric matrix)
  average eigenvalue GAMMA=   3.3204
 13.2863  6.5380  4.3272  3.5940  2.6460  2.3811  1.9010  1.2116  0.9471  0.9471
  1.0325  1.0325

 Free energy of the ion-electron system (eV)
  ---------------------------------------------------
  alpha Z        PSCENC =         0.00121808
  Ewald energy   TEWEN  =        15.18607296
  -Hartree energ DENC   =       -30.50038567
  -exchange      EXHF   =         0.00000000
  -V(xc)+E(xc)   XCENC  =         5.05217238
  PAW double counting   =        21.96816193      -22.01283452
  entropy T*S    EENTRO =        -0.00000000
  eigenvalues    EBANDS =       -19.80971552
  atomic energy  EATOM  =        25.06705842
  Solvation  Ediel_sol  =        -1.76362389
  ---------------------------------------------------
  free energy    TOTEN  =        -6.81187583 eV

  energy without entropy =       -6.81187583  energy(sigma->0) =       -6.81187583


--------------------------------------------------------------------------------------------------------




--------------------------------------- Iteration      1(  18)  ---------------------------------------


    POTLOK:  cpu time      2.5518: real time      2.5789
    SETDIJ:  cpu time      0.0870: real time      0.0877
     EDDAV:  cpu time      0.2518: real time      0.2549
       DOS:  cpu time      0.0003: real time      0.0003
    CHARGE:  cpu time      0.0547: real time      0.0558
    MIXING:  cpu time      0.0025: real time      0.0025
    --------------------------------------------
      LOOP:  cpu time      2.9482: real time      2.9803

 eigenvalue-minimisations  :    96
 total energy-change (2. order) : 0.7413366E-03  (-0.1792777E-05)
 number of electron       2.0000000 magnetization 
 augmentation part        0.0389474 magnetization 

 DIPCOR: dipole corrections for dipol
 direction  3 min pos     1,
 dipolmoment           0.000000      0.000000     -0.000000 electrons x Angstroem
 Tr[quadrupol]      -384.996268

 energy correction for charged system         0.000000 eV
 dipol+quadrupol energy correction           -0.000000 eV
 added-field ion interaction          0.000000 eV  (added to PSCEN)


 Broyden mixing:
  rms(total) = 0.10162E-03    rms(broyden)= 0.10102E-03
  rms(prec ) = 0.18931E-03
  weight for this iteration     100.00

 eigenvalues of (default mixing * dielectric matrix)
  average eigenvalue GAMMA=   3.5039
 15.2378  7.2855  4.9038  3.5975  3.1599  2.5441  2.2607  1.4752  1.1724  1.0147
  1.0147  0.9421  0.9421

 Free energy of the ion-electron system (eV)
  ---------------------------------------------------
  alpha Z        PSCENC =         0.00121808
  Ewald energy   TEWEN  =        15.18607296
  -Hartree energ DENC   =       -30.50298240
  -exchange      EXHF   =         0.00000000
  -V(xc)+E(xc)   XCENC  =         5.05238981
  PAW double counting   =        21.96311749      -22.00778742
  entropy T*S    EENTRO =        -0.00000000
  eigenvalues    EBANDS =       -19.81399901
  atomic energy  EATOM  =        25.06705842
  Solvation  Ediel_sol  =        -1.75622243
  ---------------------------------------------------
  free energy    TOTEN  =        -6.81113449 eV

  energy without entropy =       -6.81113449  energy(sigma->0) =       -6.81113449


--------------------------------------------------------------------------------------------------------




--------------------------------------- Iteration      1(  19)  ---------------------------------------


    POTLOK:  cpu time      2.4674: real time      2.4920
    SETDIJ:  cpu time      0.0879: real time      0.0885
     EDDAV:  cpu time      0.2506: real time      0.2535
       DOS:  cpu time      0.0004: real time      0.0004
    CHARGE:  cpu time      0.0549: real time      0.0561
    MIXING:  cpu time      0.0024: real time      0.0024
    --------------------------------------------
      LOOP:  cpu time      2.8636: real time      2.8928

 eigenvalue-minimisations  :    96
 total energy-change (2. order) :-0.2743824E-04  (-0.1569493E-06)
 number of electron       2.0000000 magnetization 
 augmentation part        0.0389492 magnetization 

 DIPCOR: dipole corrections for dipol
 direction  3 min pos     1,
 dipolmoment           0.000000      0.000000      0.000000 electrons x Angstroem
 Tr[quadrupol]      -385.008517

 energy correction for charged system         0.000000 eV
 dipol+quadrupol energy correction           -0.000000 eV
 added-field ion interaction          0.000000 eV  (added to PSCEN)


 Broyden mixing:
  rms(total) = 0.10801E-03    rms(broyden)= 0.10787E-03
  rms(prec ) = 0.15923E-03
  weight for this iteration     100.00

 eigenvalues of (default mixing * dielectric matrix)
  average eigenvalue GAMMA=   3.6998
 16.9065  8.1560  5.4230  4.0804  3.4732  2.8203  2.4301  2.1333  1.3121  1.1223
  0.9492  0.9492  1.0109  1.0304

 Free energy of the ion-electron system (eV)
  ---------------------------------------------------
  alpha Z        PSCENC =         0.00121808
  Ewald energy   TEWEN  =        15.18607296
  -Hartree energ DENC   =       -30.50519680
  -exchange      EXHF   =         0.00000000
  -V(xc)+E(xc)   XCENC  =         5.05264459
  PAW double counting   =        21.96736972      -22.01206124
  entropy T*S    EENTRO =        -0.00000000
  eigenvalues    EBANDS =       -19.81322423
  atomic energy  EATOM  =        25.06705842
  Solvation  Ediel_sol  =        -1.75504343
  ---------------------------------------------------
  free energy    TOTEN  =        -6.81116193 eV

  energy without entropy =       -6.81116193  energy(sigma->0) =       -6.81116193


--------------------------------------------------------------------------------------------------------




--------------------------------------- Iteration      1(  20)  ---------------------------------------


    POTLOK:  cpu time      2.4911: real time      2.5166
    SETDIJ:  cpu time      0.0873: real time      0.0879
     EDDAV:  cpu time      0.1781: real time      0.1803
       DOS:  cpu time      0.0004: real time      0.0004
    CHARGE:  cpu time      0.0572: real time      0.0583
    MIXING:  cpu time      0.0026: real time      0.0026
    --------------------------------------------
      LOOP:  cpu time      2.8167: real time      2.8462

 eigenvalue-minimisations  :    64
 total energy-change (2. order) :-0.1437758E-03  (-0.2644456E-06)
 number of electron       2.0000000 magnetization 
 augmentation part        0.0389475 magnetization 

 DIPCOR: dipole corrections for dipol
 direction  3 min pos     1,
 dipolmoment           0.000000      0.000000      0.000000 electrons x Angstroem
 Tr[quadrupol]      -385.020765

 energy correction for charged system         0.000000 eV
 dipol+quadrupol energy correction           -0.000000 eV
 added-field ion interaction          0.000000 eV  (added to PSCEN)


 Broyden mixing:
  rms(total) = 0.51901E-04    rms(broyden)= 0.51814E-04
  rms(prec ) = 0.82433E-04
  weight for this iteration     100.00

 eigenvalues of (default mixing * dielectric matrix)
  average eigenvalue GAMMA=   3.7385
 18.0657  8.9272  5.7941  4.5338  3.4141  2.6589  2.6589  2.2366  1.5128  1.2548
  1.0833  0.9492  0.9492  1.0342  1.0050

 Free energy of the ion-electron system (eV)
  ---------------------------------------------------
  alpha Z        PSCENC =         0.00121808
  Ewald energy   TEWEN  =        15.18607296
  -Hartree energ DENC   =       -30.50330058
  -exchange      EXHF   =         0.00000000
  -V(xc)+E(xc)   XCENC  =         5.05224934
  PAW double counting   =        21.96503732      -22.00972138
  entropy T*S    EENTRO =        -0.00000000
  eigenvalues    EBANDS =       -19.81358726
  atomic energy  EATOM  =        25.06705842
  Solvation  Ediel_sol  =        -1.75633260
  ---------------------------------------------------
  free energy    TOTEN  =        -6.81130570 eV

  energy without entropy =       -6.81130570  energy(sigma->0) =       -6.81130570


--------------------------------------------------------------------------------------------------------




--------------------------------------- Iteration      1(  21)  ---------------------------------------


    POTLOK:  cpu time      2.3178: real time      2.3409
    SETDIJ:  cpu time      0.0990: real time      0.1042
     EDDAV:  cpu time      0.5090: real time      0.5146
       DOS:  cpu time      0.0004: real time      0.0004
    CHARGE:  cpu time      0.0548: real time      0.0559
    MIXING:  cpu time      0.0027: real time      0.0027
    --------------------------------------------
      LOOP:  cpu time      2.9836: real time      3.0186

 eigenvalue-minimisations  :   128
 total energy-change (2. order) :-0.1071658E-03  (-0.4873899E-07)
 number of electron       2.0000000 magnetization 
 augmentation part        0.0389458 magnetization 

 DIPCOR: dipole corrections for dipol
 direction  3 min pos     1,
 dipolmoment           0.000000      0.000000      0.000000 electrons x Angstroem
 Tr[quadrupol]      -385.024088

 energy correction for charged system         0.000000 eV
 dipol+quadrupol energy correction           -0.000000 eV
 added-field ion interaction          0.000000 eV  (added to PSCEN)


 Broyden mixing:
  rms(total) = 0.52950E-04    rms(broyden)= 0.52872E-04
  rms(prec ) = 0.68801E-04
  weight for this iteration     100.00

 eigenvalues of (default mixing * dielectric matrix)
  average eigenvalue GAMMA=   4.1461
 21.3163 11.3595  6.8412  4.8580  3.9156  3.3367  2.5983  2.5134  2.1679  1.3230
  1.1393  0.9496  0.9496  1.0090  1.0090  1.0507

 Free energy of the ion-electron system (eV)
  ---------------------------------------------------
  alpha Z        PSCENC =         0.00121808
  Ewald energy   TEWEN  =        15.18607296
  -Hartree energ DENC   =       -30.50357881
  -exchange      EXHF   =         0.00000000
  -V(xc)+E(xc)   XCENC  =         5.05226682
  PAW double counting   =        21.96601856      -22.01069968
  entropy T*S    EENTRO =        -0.00000000
  eigenvalues    EBANDS =       -19.81286163
  atomic energy  EATOM  =        25.06705842
  Solvation  Ediel_sol  =        -1.75690760
  ---------------------------------------------------
  free energy    TOTEN  =        -6.81141287 eV

  energy without entropy =       -6.81141287  energy(sigma->0) =       -6.81141287


--------------------------------------------------------------------------------------------------------




--------------------------------------- Iteration      1(  22)  ---------------------------------------


    POTLOK:  cpu time      2.3356: real time      2.3607
    SETDIJ:  cpu time      0.0874: real time      0.0881
     EDDAV:  cpu time      0.1773: real time      0.1795
       DOS:  cpu time      0.0011: real time      0.0017
    CHARGE:  cpu time      0.0541: real time      0.0547
    MIXING:  cpu time      0.0028: real time      0.0029
    --------------------------------------------
      LOOP:  cpu time      2.6584: real time      2.6875

 eigenvalue-minimisations  :    64
 total energy-change (2. order) : 0.6897001E-04  (-0.6439092E-07)
 number of electron       2.0000000 magnetization 
 augmentation part        0.0389470 magnetization 

 DIPCOR: dipole corrections for dipol
 direction  3 min pos     1,
 dipolmoment           0.000000      0.000000      0.000000 electrons x Angstroem
 Tr[quadrupol]      -385.026995

 energy correction for charged system         0.000000 eV
 dipol+quadrupol energy correction           -0.000000 eV
 added-field ion interaction          0.000000 eV  (added to PSCEN)


 Broyden mixing:
  rms(total) = 0.17656E-04    rms(broyden)= 0.17550E-04
  rms(prec ) = 0.28910E-04
  weight for this iteration     100.00

 eigenvalues of (default mixing * dielectric matrix)
  average eigenvalue GAMMA=   4.3788
 23.9568 12.6355  7.3928  4.9928  4.4645  3.2148  3.2148  2.5092  2.5092  2.1574
  1.3215  1.1302  0.9527  0.9527  1.0273  1.0119  0.9945

 Free energy of the ion-electron system (eV)
  ---------------------------------------------------
  alpha Z        PSCENC =         0.00121808
  Ewald energy   TEWEN  =        15.18607296
  -Hartree energ DENC   =       -30.50438398
  -exchange      EXHF   =         0.00000000
  -V(xc)+E(xc)   XCENC  =         5.05235993
  PAW double counting   =        21.96516968      -22.00985196
  entropy T*S    EENTRO =        -0.00000000
  eigenvalues    EBANDS =       -19.81311991
  atomic energy  EATOM  =        25.06705842
  Solvation  Ediel_sol  =        -1.75586713
  ---------------------------------------------------
  free energy    TOTEN  =        -6.81134390 eV

  energy without entropy =       -6.81134390  energy(sigma->0) =       -6.81134390


--------------------------------------------------------------------------------------------------------




--------------------------------------- Iteration      1(  23)  ---------------------------------------


    POTLOK:  cpu time      2.2873: real time      2.3116
    SETDIJ:  cpu time      0.0867: real time      0.0881
     EDDAV:  cpu time      0.1806: real time      0.1827
       DOS:  cpu time      0.0003: real time      0.0003
    CHARGE:  cpu time      0.0536: real time      0.0548
    MIXING:  cpu time      0.0038: real time      0.0038
    --------------------------------------------
      LOOP:  cpu time      2.6123: real time      2.6413

 eigenvalue-minimisations  :    64
 total energy-change (2. order) :-0.3748658E-04  (-0.1271840E-07)
 number of electron       2.0000000 magnetization 
 augmentation part        0.0389463 magnetization 

 DIPCOR: dipole corrections for dipol
 direction  3 min pos     1,
 dipolmoment           0.000000      0.000000      0.000000 electrons x Angstroem
 Tr[quadrupol]      -385.027706

 energy correction for charged system         0.000000 eV
 dipol+quadrupol energy correction           -0.000000 eV
 added-field ion interaction          0.000000 eV  (added to PSCEN)


 Broyden mixing:
  rms(total) = 0.20482E-04    rms(broyden)= 0.20474E-04
  rms(prec ) = 0.24647E-04
  weight for this iteration     100.00

 eigenvalues of (default mixing * dielectric matrix)
  average eigenvalue GAMMA=   4.3793
 25.1988 13.2698  7.5721  5.6179  4.0779  4.0779  2.9747  2.6861  2.4670  2.1613
  1.3366  1.3366  1.1266  0.9545  0.9545  0.9771  1.0193  1.0193

 Free energy of the ion-electron system (eV)
  ---------------------------------------------------
  alpha Z        PSCENC =         0.00121808
  Ewald energy   TEWEN  =        15.18607296
  -Hartree energ DENC   =       -30.50448291
  -exchange      EXHF   =         0.00000000
  -V(xc)+E(xc)   XCENC  =         5.05235961
  PAW double counting   =        21.96667787      -22.01136088
  entropy T*S    EENTRO =        -0.00000000
  eigenvalues    EBANDS =       -19.81281456
  atomic energy  EATOM  =        25.06705842
  Solvation  Ediel_sol  =        -1.75610998
  ---------------------------------------------------
  free energy    TOTEN  =        -6.81138138 eV

  energy without entropy =       -6.81138138  energy(sigma->0) =       -6.81138138


--------------------------------------------------------------------------------------------------------




--------------------------------------- Iteration      1(  24)  ---------------------------------------


    POTLOK:  cpu time      2.2970: real time      2.3206
    SETDIJ:  cpu time      0.0871: real time      0.0878
     EDDAV:  cpu time      0.2537: real time      0.2565
       DOS:  cpu time      0.0003: real time      0.0003
    CHARGE:  cpu time      0.0539: real time      0.0552
    MIXING:  cpu time      0.0039: real time      0.0040
    --------------------------------------------
      LOOP:  cpu time      2.6959: real time      2.7243

 eigenvalue-minimisations  :    96
 total energy-change (2. order) : 0.2714684E-04  (-0.4997503E-08)
 number of electron       2.0000000 magnetization 
 augmentation part        0.0389470 magnetization 

 DIPCOR: dipole corrections for dipol
 direction  3 min pos     1,
 dipolmoment           0.000000      0.000000      0.000000 electrons x Angstroem
 Tr[quadrupol]      -385.027890

 energy correction for charged system         0.000000 eV
 dipol+quadrupol energy correction           -0.000000 eV
 added-field ion interaction          0.000000 eV  (added to PSCEN)


 Broyden mixing:
  rms(total) = 0.81690E-05    rms(broyden)= 0.81342E-05
  rms(prec ) = 0.11679E-04
  weight for this iteration     100.00

 eigenvalues of (default mixing * dielectric matrix)
  average eigenvalue GAMMA=   4.5339
 26.6612 14.0117  8.3781  6.3162  4.8932  3.9143  3.4872  2.7192  2.7192  2.4676
  2.1600  1.3187  1.1311  1.0608  0.9514  0.9514  1.0070  1.0070  0.9883

 Free energy of the ion-electron system (eV)
  ---------------------------------------------------
  alpha Z        PSCENC =         0.00121808
  Ewald energy   TEWEN  =        15.18607296
  -Hartree energ DENC   =       -30.50414959
  -exchange      EXHF   =         0.00000000
  -V(xc)+E(xc)   XCENC  =         5.05231333
  PAW double counting   =        21.96602180      -22.01070576
  entropy T*S    EENTRO =        -0.00000000
  eigenvalues    EBANDS =       -19.81325206
  atomic energy  EATOM  =        25.06705842
  Solvation  Ediel_sol  =        -1.75593144
  ---------------------------------------------------
  free energy    TOTEN  =        -6.81135424 eV

  energy without entropy =       -6.81135424  energy(sigma->0) =       -6.81135424


--------------------------------------------------------------------------------------------------------




--------------------------------------- Iteration      1(  25)  ---------------------------------------


    POTLOK:  cpu time      2.4054: real time      2.4552
    SETDIJ:  cpu time      0.0329: real time      0.1312
     EDDAV:  cpu time      0.3221: real time      0.3392
       DOS:  cpu time      0.0033: real time      0.0034
    CHARGE:  cpu time      0.0784: real time      0.0800
    MIXING:  cpu time      0.0283: real time      0.0284
    --------------------------------------------
      LOOP:  cpu time      2.8704: real time      3.0373

 eigenvalue-minimisations  :    64
 total energy-change (2. order) :-0.7024520E-05  (-0.1032209E-08)
 number of electron       2.0000000 magnetization 
 augmentation part        0.0389469 magnetization 

 DIPCOR: dipole corrections for dipol
 direction  3 min pos     1,
 dipolmoment           0.000000      0.000000      0.000000 electrons x Angstroem
 Tr[quadrupol]      -385.028037

 energy correction for charged system         0.000000 eV
 dipol+quadrupol energy correction           -0.000000 eV
 added-field ion interaction          0.000000 eV  (added to PSCEN)


 Broyden mixing:
  rms(total) = 0.27120E-05    rms(broyden)= 0.27103E-05
  rms(prec ) = 0.41207E-05
  weight for this iteration     100.00

 eigenvalues of (default mixing * dielectric matrix)
  average eigenvalue GAMMA=   4.5347
 27.2178 14.3911  8.9937  6.7050  5.0421  4.0587  3.6761  3.0782  2.5936  2.4580
  2.1399  1.9487  1.3186  1.1288  0.9506  0.9506  1.0470  0.9974  0.9974  1.0004

 Free energy of the ion-electron system (eV)
  ---------------------------------------------------
  alpha Z        PSCENC =         0.00121808
  Ewald energy   TEWEN  =        15.18607296
  -Hartree energ DENC   =       -30.50430770
  -exchange      EXHF   =         0.00000000
  -V(xc)+E(xc)   XCENC  =         5.05233464
  PAW double counting   =        21.96563835      -22.01032122
  entropy T*S    EENTRO =        -0.00000000
  eigenvalues    EBANDS =       -19.81309790
  atomic energy  EATOM  =        25.06705842
  Solvation  Ediel_sol  =        -1.75595689
  ---------------------------------------------------
  free energy    TOTEN  =        -6.81136126 eV

  energy without entropy =       -6.81136126  energy(sigma->0) =       -6.81136126


--------------------------------------------------------------------------------------------------------




--------------------------------------- Iteration      1(  26)  ---------------------------------------


    POTLOK:  cpu time      2.3409: real time      2.3672
    SETDIJ:  cpu time      0.0874: real time      0.0881
     EDDAV:  cpu time      0.3435: real time      0.3474
       DOS:  cpu time      0.0004: real time      0.0010
    CHARGE:  cpu time      0.0548: real time      0.0554
    MIXING:  cpu time      0.0037: real time      0.0037
    --------------------------------------------
      LOOP:  cpu time      2.8307: real time      2.8627

 eigenvalue-minimisations  :   128
 total energy-change (2. order) :-0.1403584E-05  (-0.1152145E-09)
 number of electron       2.0000000 magnetization 
 augmentation part        0.0389469 magnetization 

 DIPCOR: dipole corrections for dipol
 direction  3 min pos     1,
 dipolmoment           0.000000      0.000000      0.000000 electrons x Angstroem
 Tr[quadrupol]      -385.028070

 energy correction for charged system         0.000000 eV
 dipol+quadrupol energy correction           -0.000000 eV
 added-field ion interaction          0.000000 eV  (added to PSCEN)


 Broyden mixing:
  rms(total) = 0.13669E-05    rms(broyden)= 0.13646E-05
  rms(prec ) = 0.24072E-05
  weight for this iteration     100.00

 eigenvalues of (default mixing * dielectric matrix)
  average eigenvalue GAMMA=   4.5150
 27.5776 14.7387  9.6439  7.0164  5.1827  4.3335  3.7011  3.2464  2.7368  2.5985
  2.4655  2.1537  1.3182  1.1296  0.9514  0.9514  1.0587  1.0143  1.0143  0.9843
  0.9986

 Free energy of the ion-electron system (eV)
  ---------------------------------------------------
  alpha Z        PSCENC =         0.00121808
  Ewald energy   TEWEN  =        15.18607296
  -Hartree energ DENC   =       -30.50427027
  -exchange      EXHF   =         0.00000000
  -V(xc)+E(xc)   XCENC  =         5.05232859
  PAW double counting   =        21.96560324      -22.01028588
  entropy T*S    EENTRO =        -0.00000000
  eigenvalues    EBANDS =       -19.81310619
  atomic energy  EATOM  =        25.06705842
  Solvation  Ediel_sol  =        -1.75598161
  ---------------------------------------------------
  free energy    TOTEN  =        -6.81136267 eV

  energy without entropy =       -6.81136267  energy(sigma->0) =       -6.81136267


--------------------------------------------------------------------------------------------------------




--------------------------------------- Iteration      1(  27)  ---------------------------------------


    POTLOK:  cpu time      2.0276: real time      2.0478
    SETDIJ:  cpu time      0.0867: real time      0.0878
     EDDAV:  cpu time      0.1775: real time      0.1795
       DOS:  cpu time      0.0004: real time      0.0004
    --------------------------------------------
      LOOP:  cpu time      2.2921: real time      2.3155

 eigenvalue-minimisations  :    64
 total energy-change (2. order) : 0.1395619E-07  (-0.1447908E-09)
 number of electron       2.0000000 magnetization 
 augmentation part        0.0389469 magnetization 

 DIPCOR: dipole corrections for dipol
 direction  3 min pos     1,
 dipolmoment           0.000000      0.000000      0.000000 electrons x Angstroem
 Tr[quadrupol]      -385.028112

 energy correction for charged system         0.000000 eV
 dipol+quadrupol energy correction           -0.000000 eV
 added-field ion interaction          0.000000 eV  (added to PSCEN)


 Free energy of the ion-electron system (eV)
  ---------------------------------------------------
  alpha Z        PSCENC =         0.00121808
  Ewald energy   TEWEN  =        15.18607296
  -Hartree energ DENC   =       -30.50425868
  -exchange      EXHF   =         0.00000000
  -V(xc)+E(xc)   XCENC  =         5.05232586
  PAW double counting   =        21.96583125      -22.01051436
  entropy T*S    EENTRO =        -0.00000000
  eigenvalues    EBANDS =       -19.81312191
  atomic energy  EATOM  =        25.06705842
  Solvation  Ediel_sol  =        -1.75597427
  ---------------------------------------------------
  free energy    TOTEN  =        -6.81136265 eV

  energy without entropy =       -6.81136265  energy(sigma->0) =       -6.81136265


--------------------------------------------------------------------------------------------------------




 average (electrostatic) potential at core
  the test charge radii are     0.5201
  (the norm of the test charge is              1.0000)
       1 -41.4210       2 -41.4210



 E-fermi :  -9.4359     XC(G=0):  -0.0688     alpha+bet : -0.0069

 Fermi energy:        -9.4358869667

 k-point     1 :       0.0000    0.0000    0.0000
  band No.  band energies     occupation 
      1      -9.9066      2.00000
      2      -0.0530      0.00000
      3       0.1938      0.00000
      4       0.2490      0.00000
      5       0.3120      0.00000
      6       0.3120      0.00000
      7       0.3524      0.00000
      8       0.3539      0.00000
      9       0.4697      0.00000
     10       0.5966      0.00000
     11       0.5966      0.00000
     12       0.6401      0.00000
     13       0.7194      0.00000
     14       0.7204      0.00000
     15       0.7345      0.00000
     16       0.7352      0.00000
     17       0.7352      0.00000
     18       0.7388      0.00000
     19       0.7388      0.00000
     20       0.7416      0.00000
     21       0.8912      0.00000
     22       1.0026      0.00000
     23       1.0026      0.00000
     24       1.0696      0.00000
     25       1.1013      0.00000
     26       1.1030      0.00000
     27       1.1030      0.00000
     28       1.1200      0.00000
     29       1.2146      0.00000
     30       1.3444      0.00000
     31       1.3444      0.00000
     32       1.4616      0.00000


--------------------------------------------------------------------------------------------------------


 soft charge-density along one line, spin component           1
         0         1         2         3         4         5         6         7         8         9
 total charge-density along one line

 pseudopotential strength for first ion, spin component:           1
 -2.343  -4.036  -0.000   0.000  -0.001
 -4.036  -6.868  -0.000   0.000  -0.003
 -0.000  -0.000  -0.340  -0.000  -0.000
  0.000   0.000  -0.000  -0.340  -0.000
 -0.001  -0.003  -0.000  -0.000  -0.357
 total augmentation occupancy for first ion, spin component:           1
  3.310  -0.594   0.000   0.000   0.237
 -0.594   0.106  -0.000  -0.000  -0.042
  0.000  -0.000   0.000   0.000   0.000
  0.000  -0.000   0.000   0.000   0.000
  0.237  -0.042   0.000   0.000   0.017


------------------------ aborting loop because EDIFF is reached ----------------------------------------


    CHARGE:  cpu time      0.0551: real time      0.0557
    FORLOC:  cpu time      0.0010: real time      0.0010
    FORNL :  cpu time      0.2699: real time      0.2739
    STRESS:  cpu time      0.8579: real time      0.8686
    FORHAR:  cpu time      0.0168: real time      0.0173
    MIXING:  cpu time      0.0031: real time      0.0031
    OFIELD:  cpu time      0.0002: real time      0.0004

 ---------------------------------------------------------------------------------------------

         DFTD3 V3.0 Rev 1        
 IVDW         = 11
 DF rpbe      
 parameters
 VDW_S6       =    1.0000
 VDW_S8       =    0.5140
 VDW_SR       =    0.8720
 rs18     =    1.0000
 alpha6   =   14.0000
 alpha8   =   16.0000
 k1-k3    =   16.0000    1.3333   -4.0000
 VDW_RADIUS   =   50.2022 A
 VDW_CNRADIUS =   21.1671 A
 Edisp (eV)   -0.00000

 E6    (eV) :    -0.0000
 E8    (eV) :    -0.0000
 % E8        :  4.58
    FORVDW:  cpu time      0.0159: real time      0.0174

  FORCE on cell =-STRESS in cart. coord.  units (eV):
  Direction    XX          YY          ZZ          XY          YZ          ZX
  --------------------------------------------------------------------------------------
  Alpha Z     0.00122     0.00122     0.00122
  Ewald      17.91201    -1.36296    -1.36296     0.00000     0.00000     0.00000
  Hartree    11.55902     9.47263     9.47263     0.00000     0.00000     0.00000
  E(xc)      -5.69103    -5.94209    -5.94209     0.00000     0.00000     0.00000
  Local     -30.71733   -18.30242   -18.30242    -0.00000    -0.00000    -0.00000
  n-local    -5.87481    -5.30110    -5.30110    -0.00000    -0.00000    -0.00000
  augment     0.41531     0.21885     0.21886    -0.00000    -0.00000     0.00000
  Kinetic    13.59474    19.59790    19.59790    -0.00000    -0.00000    -0.00000
  Fock        0.00000     0.00000     0.00000     0.00000     0.00000     0.00000
  vdW         0.00003    -0.00000    -0.00000     0.00000     0.00000     0.00000
  -------------------------------------------------------------------------------------
  Total       1.19916    -1.61799    -1.61798    -0.00000    -0.00000     0.00000
  in kB       0.24016    -0.32404    -0.32404    -0.00000    -0.00000     0.00000
  external pressure =       -0.14 kB  Pullay stress =        0.00 kB


 VOLUME and BASIS-vectors are now :
 -----------------------------------------------------------------------------
  energy-cutoff  :      400.00
  volume of cell :     8000.00
      direct lattice vectors                 reciprocal lattice vectors
    20.000000000  0.000000000  0.000000000     0.050000000  0.000000000  0.000000000
     0.000000000 20.000000000  0.000000000     0.000000000  0.050000000  0.000000000
     0.000000000  0.000000000 20.000000000     0.000000000  0.000000000  0.050000000

  length of vectors
    20.000000000 20.000000000 20.000000000     0.050000000  0.050000000  0.050000000


 FORCES acting on ions
    electron-ion (+dipol)            ewald-force                    non-local-force                 convergence-correction
 -----------------------------------------------------------------------------------------------
   0.185E+02 0.378E-08 0.364E-07   -.258E+02 -.511E-08 -.100E-06   0.359E+01 0.727E-08 0.351E-06   -.288E-05 -.322E-09 -.930E-09
   -.185E+02 -.344E-08 -.353E-07   0.258E+02 0.511E-08 0.100E-06   -.359E+01 -.775E-08 -.350E-06   0.188E-05 -.337E-09 -.976E-09
 -----------------------------------------------------------------------------------------------
   0.120E-05 -.160E-09 0.967E-09   0.000E+00 -.168E-18 0.317E-18   0.171E-06 -.479E-09 0.351E-09   -.996E-06 -.659E-09 -.191E-08


 POSITION                                       TOTAL-FORCE (eV/Angst)
 -----------------------------------------------------------------------------------
      9.62636     10.00000     10.00000        -3.851201      0.000000      0.000000
     10.37364     10.00000     10.00000         3.851201     -0.000000     -0.000000
 -----------------------------------------------------------------------------------
    total drift:                                0.000000     -0.000000     -0.000000


--------------------------------------------------------------------------------------------------------



  FREE ENERGIE OF THE ION-ELECTRON SYSTEM (eV)
  ---------------------------------------------------
  free  energy   TOTEN  =        -6.81136708 eV

  energy  without entropy=       -6.81136708  energy(sigma->0) =       -6.81136708



--------------------------------------------------------------------------------------------------------


    POTLOK:  cpu time      1.9933: real time      2.0172


--------------------------------------------------------------------------------------------------------


 stress matrix after NEB project (eV)
      1.19916     -0.00000      0.00000
     -0.00000     -1.61799     -0.00000
      0.00000     -0.00000     -1.61798
  FORCES: max atom, RMS     3.851201    3.851201
  FORCE total and by dimension    5.446421    3.851201
  Stress total and by dimension    2.583353    1.617985


--------------------------------------------------------------------------------------------------------


    WAVPRE:  cpu time      0.0061: real time      0.0090
    FEWALD:  cpu time      0.0003: real time      0.0003

 real space projection operators:
  total allocation   :         75.62 KBytes
  max/ min on nodes  :         19.61         17.73

    ORTHCH:  cpu time      0.0207: real time      0.0215
     LOOP+:  cpu time     78.3181: real time     79.6150


--------------------------------------- Ionic step        2  -------------------------------------------




--------------------------------------- Iteration      2(   1)  ---------------------------------------


    POTLOK:  cpu time      3.3405: real time      3.3743
    SETDIJ:  cpu time      0.0867: real time      0.0879
     EDDAV:  cpu time      0.1793: real time      0.1814
       DOS:  cpu time      0.0007: real time      0.0007
    CHARGE:  cpu time      0.0547: real time      0.0558
    MIXING:  cpu time      0.0014: real time      0.0014
    --------------------------------------------
      LOOP:  cpu time      3.6634: real time      3.7015

 eigenvalue-minimisations  :    64
 total energy-change (2. order) : 0.3057896E+00  (-0.9863341E+00)
 number of electron       2.0000000 magnetization 
 augmentation part        0.0322178 magnetization 

 DIPCOR: dipole corrections for dipol
 direction  3 min pos     1,
 dipolmoment           0.000000      0.000000      0.000000 electrons x Angstroem
 Tr[quadrupol]      -380.760588

 energy correction for charged system         0.000000 eV
 dipol+quadrupol energy correction           -0.000000 eV
 added-field ion interaction          0.000000 eV  (added to PSCEN)


 Broyden mixing:
  rms(total) = 0.96669E-01    rms(broyden)= 0.96622E-01
  rms(prec ) = 0.10215E+00
  weight for this iteration     100.00

 Free energy of the ion-electron system (eV)
  ---------------------------------------------------
  alpha Z        PSCENC =         0.00121808
  Ewald energy   TEWEN  =        10.75953265
  -Hartree energ DENC   =       -28.67607915
  -exchange      EXHF   =         0.00000000
  -V(xc)+E(xc)   XCENC  =         4.83601147
  PAW double counting   =        21.96577320      -22.01045630
  entropy T*S    EENTRO =        -0.00000000
  eigenvalues    EBANDS =       -17.45259098
  atomic energy  EATOM  =        25.06705842
  Solvation  Ediel_sol  =        -0.99604041
  ---------------------------------------------------
  free energy    TOTEN  =        -6.50557303 eV

  energy without entropy =       -6.50557303  energy(sigma->0) =       -6.50557303


--------------------------------------------------------------------------------------------------------




--------------------------------------- Iteration      2(   2)  ---------------------------------------


    POTLOK:  cpu time      3.0783: real time      3.1100
    SETDIJ:  cpu time      0.0868: real time      0.0874
     EDDAV:  cpu time      0.1776: real time      0.1796
       DOS:  cpu time      0.0004: real time      0.0005
    CHARGE:  cpu time      0.0538: real time      0.0549
    MIXING:  cpu time      0.0014: real time      0.0014
    --------------------------------------------
      LOOP:  cpu time      3.3983: real time      3.4338

 eigenvalue-minimisations  :    64
 total energy-change (2. order) : 0.7266365E-01  (-0.6138840E-02)
 number of electron       2.0000000 magnetization 
 augmentation part        0.0327163 magnetization 

 DIPCOR: dipole corrections for dipol
 direction  3 min pos     1,
 dipolmoment           0.000000      0.000000      0.000000 electrons x Angstroem
 Tr[quadrupol]      -380.761292

 energy correction for charged system         0.000000 eV
 dipol+quadrupol energy correction           -0.000000 eV
 added-field ion interaction          0.000000 eV  (added to PSCEN)


 Broyden mixing:
  rms(total) = 0.46313E-01    rms(broyden)= 0.46310E-01
  rms(prec ) = 0.48682E-01
  weight for this iteration     100.00

 eigenvalues of (default mixing * dielectric matrix)
  average eigenvalue GAMMA=   1.8816
  1.8816

 Free energy of the ion-electron system (eV)
  ---------------------------------------------------
  alpha Z        PSCENC =         0.00121808
  Ewald energy   TEWEN  =        10.75953265
  -Hartree energ DENC   =       -28.20518442
  -exchange      EXHF   =         0.00000000
  -V(xc)+E(xc)   XCENC  =         4.76969677
  PAW double counting   =        17.69901918      -17.73739022
  entropy T*S    EENTRO =        -0.00000000
  eigenvalues    EBANDS =       -17.99158883
  atomic energy  EATOM  =        25.06705842
  Solvation  Ediel_sol  =        -0.79527101
  ---------------------------------------------------
  free energy    TOTEN  =        -6.43290937 eV

  energy without entropy =       -6.43290937  energy(sigma->0) =       -6.43290937


--------------------------------------------------------------------------------------------------------




--------------------------------------- Iteration      2(   3)  ---------------------------------------


    POTLOK:  cpu time      3.0641: real time      3.0943
    SETDIJ:  cpu time      0.0875: real time      0.0881
     EDDAV:  cpu time      0.3410: real time      0.3454
       DOS:  cpu time      0.0003: real time      0.0003
    CHARGE:  cpu time      0.0544: real time      0.0556
    MIXING:  cpu time      0.0015: real time      0.0015
    --------------------------------------------
      LOOP:  cpu time      3.5488: real time      3.5853

 eigenvalue-minimisations  :   128
 total energy-change (2. order) : 0.3236192E-01  (-0.2495046E-02)
 number of electron       2.0000000 magnetization 
 augmentation part        0.0331002 magnetization 

 DIPCOR: dipole corrections for dipol
 direction  3 min pos     1,
 dipolmoment           0.000000      0.000000      0.000000 electrons x Angstroem
 Tr[quadrupol]      -380.760512

 energy correction for charged system         0.000000 eV
 dipol+quadrupol energy correction           -0.000000 eV
 added-field ion interaction          0.000000 eV  (added to PSCEN)


 Broyden mixing:
  rms(total) = 0.75276E-02    rms(broyden)= 0.75128E-02
  rms(prec ) = 0.78766E-02
  weight for this iteration     100.00

 eigenvalues of (default mixing * dielectric matrix)
  average eigenvalue GAMMA=   1.9894
  1.5295  2.4494

 Free energy of the ion-electron system (eV)
  ---------------------------------------------------
  alpha Z        PSCENC =         0.00121808
  Ewald energy   TEWEN  =        10.75953265
  -Hartree energ DENC   =       -27.82070959
  -exchange      EXHF   =         0.00000000
  -V(xc)+E(xc)   XCENC  =         4.71628259
  PAW double counting   =        13.76412374      -13.79672808
  entropy T*S    EENTRO =        -0.00000000
  eigenvalues    EBANDS =       -18.40769539
  atomic energy  EATOM  =        25.06705842
  Solvation  Ediel_sol  =        -0.68362987
  ---------------------------------------------------
  free energy    TOTEN  =        -6.40054745 eV

  energy without entropy =       -6.40054745  energy(sigma->0) =       -6.40054745


--------------------------------------------------------------------------------------------------------




--------------------------------------- Iteration      2(   4)  ---------------------------------------


    POTLOK:  cpu time      3.2032: real time      3.2371
    SETDIJ:  cpu time      0.0873: real time      0.0879
     EDDAV:  cpu time      0.2545: real time      0.2573
       DOS:  cpu time      0.0003: real time      0.0003
    CHARGE:  cpu time      0.0543: real time      0.0555
    MIXING:  cpu time      0.0016: real time      0.0016
    --------------------------------------------
      LOOP:  cpu time      3.6011: real time      3.6397

 eigenvalue-minimisations  :    96
 total energy-change (2. order) : 0.6178079E-04  (-0.8009915E-04)
 number of electron       2.0000000 magnetization 
 augmentation part        0.0331029 magnetization 

 DIPCOR: dipole corrections for dipol
 direction  3 min pos     1,
 dipolmoment           0.000000      0.000000      0.000000 electrons x Angstroem
 Tr[quadrupol]      -380.759863

 energy correction for charged system         0.000000 eV
 dipol+quadrupol energy correction           -0.000000 eV
 added-field ion interaction          0.000000 eV  (added to PSCEN)


 Broyden mixing:
  rms(total) = 0.17080E-02    rms(broyden)= 0.17065E-02
  rms(prec ) = 0.20773E-02
  weight for this iteration     100.00

 eigenvalues of (default mixing * dielectric matrix)
  average eigenvalue GAMMA=   1.8019
  1.0203  1.6883  2.6972

 Free energy of the ion-electron system (eV)
  ---------------------------------------------------
  alpha Z        PSCENC =         0.00121808
  Ewald energy   TEWEN  =        10.75953265
  -Hartree energ DENC   =       -27.78171536
  -exchange      EXHF   =         0.00000000
  -V(xc)+E(xc)   XCENC  =         4.71154427
  PAW double counting   =        12.77545056      -12.80685995
  entropy T*S    EENTRO =        -0.00000000
  eigenvalues    EBANDS =       -18.40349826
  atomic energy  EATOM  =        25.06705842
  Solvation  Ediel_sol  =        -0.72321609
  ---------------------------------------------------
  free energy    TOTEN  =        -6.40048567 eV

  energy without entropy =       -6.40048567  energy(sigma->0) =       -6.40048567


--------------------------------------------------------------------------------------------------------




--------------------------------------- Iteration      2(   5)  ---------------------------------------


    POTLOK:  cpu time      2.8923: real time      2.9222
    SETDIJ:  cpu time      0.0867: real time      0.0877
     EDDAV:  cpu time      0.3408: real time      0.3446
       DOS:  cpu time      0.0003: real time      0.0003
    CHARGE:  cpu time      0.0533: real time      0.0544
    MIXING:  cpu time      0.0021: real time      0.0021
    --------------------------------------------
      LOOP:  cpu time      3.3756: real time      3.4114

 eigenvalue-minimisations  :   128
 total energy-change (2. order) :-0.2982379E-03  (-0.6916558E-05)
 number of electron       2.0000000 magnetization 
 augmentation part        0.0330983 magnetization 

 DIPCOR: dipole corrections for dipol
 direction  3 min pos     1,
 dipolmoment           0.000000      0.000000      0.000000 electrons x Angstroem
 Tr[quadrupol]      -380.759320

 energy correction for charged system         0.000000 eV
 dipol+quadrupol energy correction           -0.000000 eV
 added-field ion interaction          0.000000 eV  (added to PSCEN)


 Broyden mixing:
  rms(total) = 0.86092E-03    rms(broyden)= 0.86083E-03
  rms(prec ) = 0.11521E-02
  weight for this iteration     100.00

 eigenvalues of (default mixing * dielectric matrix)
  average eigenvalue GAMMA=   2.0695
  0.9980  3.1728  1.5756  2.5317

 Free energy of the ion-electron system (eV)
  ---------------------------------------------------
  alpha Z        PSCENC =         0.00121808
  Ewald energy   TEWEN  =        10.75953265
  -Hartree energ DENC   =       -27.77933122
  -exchange      EXHF   =         0.00000000
  -V(xc)+E(xc)   XCENC  =         4.71145680
  PAW double counting   =        12.68393679      -12.71528841
  entropy T*S    EENTRO =        -0.00000000
  eigenvalues    EBANDS =       -18.39299825
  atomic energy  EATOM  =        25.06705842
  Solvation  Ediel_sol  =        -0.73636877
  ---------------------------------------------------
  free energy    TOTEN  =        -6.40078391 eV

  energy without entropy =       -6.40078391  energy(sigma->0) =       -6.40078391


--------------------------------------------------------------------------------------------------------




--------------------------------------- Iteration      2(   6)  ---------------------------------------


    POTLOK:  cpu time      4.6461: real time      4.6856
    SETDIJ:  cpu time      0.0876: real time      0.0883
     EDDAV:  cpu time      0.3385: real time      0.3422
       DOS:  cpu time      0.0003: real time      0.0004
    CHARGE:  cpu time      0.0536: real time      0.0547
    MIXING:  cpu time      0.0018: real time      0.0018
    --------------------------------------------
      LOOP:  cpu time      5.1280: real time      5.1730

 eigenvalue-minimisations  :   128
 total energy-change (2. order) :-0.6752420E-04  (-0.8507412E-05)
 number of electron       2.0000000 magnetization 
 augmentation part        0.0331006 magnetization 

 DIPCOR: dipole corrections for dipol
 direction  3 min pos     1,
 dipolmoment           0.000000      0.000000      0.000000 electrons x Angstroem
 Tr[quadrupol]      -380.757797

 energy correction for charged system         0.000000 eV
 dipol+quadrupol energy correction           -0.000000 eV
 added-field ion interaction          0.000000 eV  (added to PSCEN)


 Broyden mixing:
  rms(total) = 0.24830E-03    rms(broyden)= 0.24811E-03
  rms(prec ) = 0.44085E-03
  weight for this iteration     100.00

 eigenvalues of (default mixing * dielectric matrix)
  average eigenvalue GAMMA=   2.1901
  3.8811  0.9998  2.4861  1.5547  2.0287

 Free energy of the ion-electron system (eV)
  ---------------------------------------------------
  alpha Z        PSCENC =         0.00121808
  Ewald energy   TEWEN  =        10.75953265
  -Hartree energ DENC   =       -27.77679241
  -exchange      EXHF   =         0.00000000
  -V(xc)+E(xc)   XCENC  =         4.71135196
  PAW double counting   =        12.76225239      -12.79375897
  entropy T*S    EENTRO =        -0.00000000
  eigenvalues    EBANDS =       -18.38525332
  atomic energy  EATOM  =        25.06705842
  Solvation  Ediel_sol  =        -0.74646024
  ---------------------------------------------------
  free energy    TOTEN  =        -6.40085143 eV

  energy without entropy =       -6.40085143  energy(sigma->0) =       -6.40085143


--------------------------------------------------------------------------------------------------------




--------------------------------------- Iteration      2(   7)  ---------------------------------------


    POTLOK:  cpu time      2.7836: real time      2.8125
    SETDIJ:  cpu time      0.0876: real time      0.0883
     EDDAV:  cpu time      0.3422: real time      0.3459
       DOS:  cpu time      0.0003: real time      0.0003
    CHARGE:  cpu time      0.0541: real time      0.0552
    MIXING:  cpu time      0.0017: real time      0.0017
    --------------------------------------------
      LOOP:  cpu time      3.2696: real time      3.3039

 eigenvalue-minimisations  :   128
 total energy-change (2. order) :-0.7670740E-04  (-0.1012722E-05)
 number of electron       2.0000000 magnetization 
 augmentation part        0.0331004 magnetization 

 DIPCOR: dipole corrections for dipol
 direction  3 min pos     1,
 dipolmoment           0.000000      0.000000      0.000000 electrons x Angstroem
 Tr[quadrupol]      -380.755781

 energy correction for charged system         0.000000 eV
 dipol+quadrupol energy correction           -0.000000 eV
 added-field ion interaction          0.000000 eV  (added to PSCEN)


 Broyden mixing:
  rms(total) = 0.11991E-03    rms(broyden)= 0.11990E-03
  rms(prec ) = 0.27291E-03
  weight for this iteration     100.00

 eigenvalues of (default mixing * dielectric matrix)
  average eigenvalue GAMMA=   2.2264
  4.2053  2.9207  2.4121  0.9998  1.5336  1.2869

 Free energy of the ion-electron system (eV)
  ---------------------------------------------------
  alpha Z        PSCENC =         0.00121808
  Ewald energy   TEWEN  =        10.75953265
  -Hartree energ DENC   =       -27.77181179
  -exchange      EXHF   =         0.00000000
  -V(xc)+E(xc)   XCENC  =         4.71075902
  PAW double counting   =        12.75006247      -12.78154062
  entropy T*S    EENTRO =        -0.00000000
  eigenvalues    EBANDS =       -18.38465457
  atomic energy  EATOM  =        25.06705842
  Solvation  Ediel_sol  =        -0.75155180
  ---------------------------------------------------
  free energy    TOTEN  =        -6.40092814 eV

  energy without entropy =       -6.40092814  energy(sigma->0) =       -6.40092814


--------------------------------------------------------------------------------------------------------




--------------------------------------- Iteration      2(   8)  ---------------------------------------


    POTLOK:  cpu time      2.5070: real time      2.5324
    SETDIJ:  cpu time      0.0871: real time      0.0878
     EDDAV:  cpu time      0.3427: real time      0.3465
       DOS:  cpu time      0.0003: real time      0.0003
    CHARGE:  cpu time      0.0538: real time      0.0549
    MIXING:  cpu time      0.0017: real time      0.0018
    --------------------------------------------
      LOOP:  cpu time      2.9927: real time      3.0237

 eigenvalue-minimisations  :   128
 total energy-change (2. order) : 0.2287345E-04  (-0.4601632E-06)
 number of electron       2.0000000 magnetization 
 augmentation part        0.0331014 magnetization 

 DIPCOR: dipole corrections for dipol
 direction  3 min pos     1,
 dipolmoment           0.000000      0.000000      0.000000 electrons x Angstroem
 Tr[quadrupol]      -380.752767

 energy correction for charged system         0.000000 eV
 dipol+quadrupol energy correction           -0.000000 eV
 added-field ion interaction          0.000000 eV  (added to PSCEN)


 Broyden mixing:
  rms(total) = 0.10755E-03    rms(broyden)= 0.10754E-03
  rms(prec ) = 0.20381E-03
  weight for this iteration     100.00

 eigenvalues of (default mixing * dielectric matrix)
  average eigenvalue GAMMA=   2.5915
  5.9158  3.6760  2.6161  2.3704  1.5432  0.9966  1.0222

 Free energy of the ion-electron system (eV)
  ---------------------------------------------------
  alpha Z        PSCENC =         0.00121808
  Ewald energy   TEWEN  =        10.75953265
  -Hartree energ DENC   =       -27.76815813
  -exchange      EXHF   =         0.00000000
  -V(xc)+E(xc)   XCENC  =         4.71034459
  PAW double counting   =        12.75035314      -12.78182008
  entropy T*S    EENTRO =        -0.00000000
  eigenvalues    EBANDS =       -18.38597880
  atomic energy  EATOM  =        25.06705842
  Solvation  Ediel_sol  =        -0.75345516
  ---------------------------------------------------
  free energy    TOTEN  =        -6.40090527 eV

  energy without entropy =       -6.40090527  energy(sigma->0) =       -6.40090527


--------------------------------------------------------------------------------------------------------




--------------------------------------- Iteration      2(   9)  ---------------------------------------


    POTLOK:  cpu time      2.4694: real time      2.4949
    SETDIJ:  cpu time      0.0961: real time      0.0985
     EDDAV:  cpu time      0.1795: real time      0.1816
       DOS:  cpu time      0.0003: real time      0.0003
    CHARGE:  cpu time      0.0536: real time      0.0548
    MIXING:  cpu time      0.0024: real time      0.0025
    --------------------------------------------
      LOOP:  cpu time      2.8014: real time      2.8326

 eigenvalue-minimisations  :    64
 total energy-change (2. order) :-0.5977453E-05  (-0.2394754E-06)
 number of electron       2.0000000 magnetization 
 augmentation part        0.0331016 magnetization 

 DIPCOR: dipole corrections for dipol
 direction  3 min pos     1,
 dipolmoment           0.000000      0.000000      0.000000 electrons x Angstroem
 Tr[quadrupol]      -380.747453

 energy correction for charged system         0.000000 eV
 dipol+quadrupol energy correction           -0.000000 eV
 added-field ion interaction          0.000000 eV  (added to PSCEN)


 Broyden mixing:
  rms(total) = 0.45328E-04    rms(broyden)= 0.45320E-04
  rms(prec ) = 0.12575E-03
  weight for this iteration     100.00

 eigenvalues of (default mixing * dielectric matrix)
  average eigenvalue GAMMA=   2.7026
  6.5498  3.9695  1.0024  0.9866  2.9913  1.5523  2.4883  2.0802

 Free energy of the ion-electron system (eV)
  ---------------------------------------------------
  alpha Z        PSCENC =         0.00121808
  Ewald energy   TEWEN  =        10.75953265
  -Hartree energ DENC   =       -27.76729739
  -exchange      EXHF   =         0.00000000
  -V(xc)+E(xc)   XCENC  =         4.71038268
  PAW double counting   =        12.74928446      -12.78075916
  entropy T*S    EENTRO =        -0.00000000
  eigenvalues    EBANDS =       -18.38516596
  atomic energy  EATOM  =        25.06705842
  Solvation  Ediel_sol  =        -0.75516501
  ---------------------------------------------------
  free energy    TOTEN  =        -6.40091125 eV

  energy without entropy =       -6.40091125  energy(sigma->0) =       -6.40091125


--------------------------------------------------------------------------------------------------------




--------------------------------------- Iteration      2(  10)  ---------------------------------------


    POTLOK:  cpu time      2.4287: real time      2.4546
    SETDIJ:  cpu time      0.0901: real time      0.0908
     EDDAV:  cpu time      0.2547: real time      0.2575
       DOS:  cpu time      0.0004: real time      0.0004
    CHARGE:  cpu time      0.0541: real time      0.0552
    MIXING:  cpu time      0.0020: real time      0.0020
    --------------------------------------------
      LOOP:  cpu time      2.8301: real time      2.8605

 eigenvalue-minimisations  :    96
 total energy-change (2. order) :-0.9846659E-04  (-0.1531957E-06)
 number of electron       2.0000000 magnetization 
 augmentation part        0.0331006 magnetization 

 DIPCOR: dipole corrections for dipol
 direction  3 min pos     1,
 dipolmoment           0.000000      0.000000      0.000000 electrons x Angstroem
 Tr[quadrupol]      -380.739455

 energy correction for charged system         0.000000 eV
 dipol+quadrupol energy correction           -0.000000 eV
 added-field ion interaction          0.000000 eV  (added to PSCEN)


 Broyden mixing:
  rms(total) = 0.10211E-03    rms(broyden)= 0.10210E-03
  rms(prec ) = 0.13326E-03
  weight for this iteration     100.00

 eigenvalues of (default mixing * dielectric matrix)
  average eigenvalue GAMMA=   2.8735
  8.1870  4.6464  3.4587  2.5748  2.3749  1.5349  0.9773  0.9994  1.1077

 Free energy of the ion-electron system (eV)
  ---------------------------------------------------
  alpha Z        PSCENC =         0.00121808
  Ewald energy   TEWEN  =        10.75953265
  -Hartree energ DENC   =       -27.76777170
  -exchange      EXHF   =         0.00000000
  -V(xc)+E(xc)   XCENC  =         4.71053343
  PAW double counting   =        12.75277274      -12.78425412
  entropy T*S    EENTRO =        -0.00000000
  eigenvalues    EBANDS =       -18.38359814
  atomic energy  EATOM  =        25.06705842
  Solvation  Ediel_sol  =        -0.75650107
  ---------------------------------------------------
  free energy    TOTEN  =        -6.40100971 eV

  energy without entropy =       -6.40100971  energy(sigma->0) =       -6.40100971


--------------------------------------------------------------------------------------------------------




--------------------------------------- Iteration      2(  11)  ---------------------------------------


    POTLOK:  cpu time      2.3366: real time      2.3609
    SETDIJ:  cpu time      0.0872: real time      0.0881
     EDDAV:  cpu time      0.2530: real time      0.2557
       DOS:  cpu time      0.0007: real time      0.0007
    CHARGE:  cpu time      0.0538: real time      0.0549
    MIXING:  cpu time      0.0021: real time      0.0021
    --------------------------------------------
      LOOP:  cpu time      2.7334: real time      2.7625

 eigenvalue-minimisations  :    96
 total energy-change (2. order) : 0.8149203E-04  (-0.4600148E-07)
 number of electron       2.0000000 magnetization 
 augmentation part        0.0331018 magnetization 

 DIPCOR: dipole corrections for dipol
 direction  3 min pos     1,
 dipolmoment           0.000000      0.000000      0.000000 electrons x Angstroem
 Tr[quadrupol]      -380.734739

 energy correction for charged system         0.000000 eV
 dipol+quadrupol energy correction           -0.000000 eV
 added-field ion interaction          0.000000 eV  (added to PSCEN)


 Broyden mixing:
  rms(total) = 0.33302E-04    rms(broyden)= 0.33276E-04
  rms(prec ) = 0.70724E-04
  weight for this iteration     100.00

 eigenvalues of (default mixing * dielectric matrix)
  average eigenvalue GAMMA=   3.2189
 10.1903  5.5590  3.9977  3.0753  2.4860  2.3154  1.5365  0.9946  0.9946  1.0394

 Free energy of the ion-electron system (eV)
  ---------------------------------------------------
  alpha Z        PSCENC =         0.00121808
  Ewald energy   TEWEN  =        10.75953265
  -Hartree energ DENC   =       -27.76627489
  -exchange      EXHF   =         0.00000000
  -V(xc)+E(xc)   XCENC  =         4.71035975
  PAW double counting   =        12.75025619      -12.78172935
  entropy T*S    EENTRO =        -0.00000000
  eigenvalues    EBANDS =       -18.38502501
  atomic energy  EATOM  =        25.06705842
  Solvation  Ediel_sol  =        -0.75632406
  ---------------------------------------------------
  free energy    TOTEN  =        -6.40092822 eV

  energy without entropy =       -6.40092822  energy(sigma->0) =       -6.40092822


--------------------------------------------------------------------------------------------------------




--------------------------------------- Iteration      2(  12)  ---------------------------------------


    POTLOK:  cpu time      2.3921: real time      2.4171
    SETDIJ:  cpu time      0.0899: real time      0.0906
     EDDAV:  cpu time      0.3380: real time      0.3421
       DOS:  cpu time      0.0004: real time      0.0004
    CHARGE:  cpu time      0.0541: real time      0.0552
    MIXING:  cpu time      0.0026: real time      0.0026
    --------------------------------------------
      LOOP:  cpu time      2.8771: real time      2.9081

 eigenvalue-minimisations  :   128
 total energy-change (2. order) :-0.1980597E-04  (-0.5253793E-07)
 number of electron       2.0000000 magnetization 
 augmentation part        0.0331018 magnetization 

 DIPCOR: dipole corrections for dipol
 direction  3 min pos     1,
 dipolmoment           0.000000      0.000000      0.000000 electrons x Angstroem
 Tr[quadrupol]      -380.725035

 energy correction for charged system         0.000000 eV
 dipol+quadrupol energy correction           -0.000000 eV
 added-field ion interaction          0.000000 eV  (added to PSCEN)


 Broyden mixing:
  rms(total) = 0.24353E-04    rms(broyden)= 0.24351E-04
  rms(prec ) = 0.42600E-04
  weight for this iteration     100.00

 eigenvalues of (default mixing * dielectric matrix)
  average eigenvalue GAMMA=   3.2821
 11.6605  6.1279  4.0719  3.3906  2.6294  2.3860  1.5343  0.9992  0.9992  1.0018
  1.3017

 Free energy of the ion-electron system (eV)
  ---------------------------------------------------
  alpha Z        PSCENC =         0.00121808
  Ewald energy   TEWEN  =        10.75953265
  -Hartree energ DENC   =       -27.76593095
  -exchange      EXHF   =         0.00000000
  -V(xc)+E(xc)   XCENC  =         4.71033322
  PAW double counting   =        12.75056808      -12.78204230
  entropy T*S    EENTRO =        -0.00000000
  eigenvalues    EBANDS =       -18.38501752
  atomic energy  EATOM  =        25.06705842
  Solvation  Ediel_sol  =        -0.75666771
  ---------------------------------------------------
  free energy    TOTEN  =        -6.40094803 eV

  energy without entropy =       -6.40094803  energy(sigma->0) =       -6.40094803


--------------------------------------------------------------------------------------------------------




--------------------------------------- Iteration      2(  13)  ---------------------------------------


    POTLOK:  cpu time      2.3165: real time      2.3407
    SETDIJ:  cpu time      0.0868: real time      0.0875
     EDDAV:  cpu time      0.1812: real time      0.1833
       DOS:  cpu time      0.0004: real time      0.0003
    CHARGE:  cpu time      0.0536: real time      0.0547
    MIXING:  cpu time      0.0025: real time      0.0025
    --------------------------------------------
      LOOP:  cpu time      2.6410: real time      2.6690

 eigenvalue-minimisations  :    64
 total energy-change (2. order) :-0.2673198E-04  (-0.4783114E-08)
 number of electron       2.0000000 magnetization 
 augmentation part        0.0331016 magnetization 

 DIPCOR: dipole corrections for dipol
 direction  3 min pos     1,
 dipolmoment           0.000000      0.000000      0.000000 electrons x Angstroem
 Tr[quadrupol]      -380.721774

 energy correction for charged system         0.000000 eV
 dipol+quadrupol energy correction           -0.000000 eV
 added-field ion interaction          0.000000 eV  (added to PSCEN)


 Broyden mixing:
  rms(total) = 0.29672E-04    rms(broyden)= 0.29672E-04
  rms(prec ) = 0.40671E-04
  weight for this iteration     100.00

 eigenvalues of (default mixing * dielectric matrix)
  average eigenvalue GAMMA=   3.7637
 15.9818  7.2950  4.7917  3.6755  2.9560  2.5466  2.3574  1.5358  1.0666  0.9999
  0.9792  0.9792

 Free energy of the ion-electron system (eV)
  ---------------------------------------------------
  alpha Z        PSCENC =         0.00121808
  Ewald energy   TEWEN  =        10.75953265
  -Hartree energ DENC   =       -27.76634405
  -exchange      EXHF   =         0.00000000
  -V(xc)+E(xc)   XCENC  =         4.71040287
  PAW double counting   =        12.75041897      -12.78189631
  entropy T*S    EENTRO =        -0.00000000
  eigenvalues    EBANDS =       -18.38451457
  atomic energy  EATOM  =        25.06705842
  Solvation  Ediel_sol  =        -0.75685082
  ---------------------------------------------------
  free energy    TOTEN  =        -6.40097476 eV

  energy without entropy =       -6.40097476  energy(sigma->0) =       -6.40097476


--------------------------------------------------------------------------------------------------------




--------------------------------------- Iteration      2(  14)  ---------------------------------------


    POTLOK:  cpu time      2.2421: real time      2.2656
    SETDIJ:  cpu time      0.0870: real time      0.0877
     EDDAV:  cpu time      0.1779: real time      0.1800
       DOS:  cpu time      0.0004: real time      0.0004
    CHARGE:  cpu time      0.0541: real time      0.0551
    MIXING:  cpu time      0.0024: real time      0.0024
    --------------------------------------------
      LOOP:  cpu time      2.5639: real time      2.5912

 eigenvalue-minimisations  :    64
 total energy-change (2. order) : 0.1032069E-04  (-0.8992693E-08)
 number of electron       2.0000000 magnetization 
 augmentation part        0.0331017 magnetization 

 DIPCOR: dipole corrections for dipol
 direction  3 min pos     1,
 dipolmoment           0.000000      0.000000      0.000000 electrons x Angstroem
 Tr[quadrupol]      -380.717980

 energy correction for charged system         0.000000 eV
 dipol+quadrupol energy correction           -0.000000 eV
 added-field ion interaction          0.000000 eV  (added to PSCEN)


 Broyden mixing:
  rms(total) = 0.80808E-05    rms(broyden)= 0.80792E-05
  rms(prec ) = 0.18727E-04
  weight for this iteration     100.00

 eigenvalues of (default mixing * dielectric matrix)
  average eigenvalue GAMMA=   4.0579
 18.9276  7.9569  5.3006  3.8947  3.5099  2.7535  2.4904  2.3437  1.5363  0.9925
  0.9925  1.0021  1.0524

 Free energy of the ion-electron system (eV)
  ---------------------------------------------------
  alpha Z        PSCENC =         0.00121808
  Ewald energy   TEWEN  =        10.75953265
  -Hartree energ DENC   =       -27.76589799
  -exchange      EXHF   =         0.00000000
  -V(xc)+E(xc)   XCENC  =         4.71034715
  PAW double counting   =        12.75035348      -12.78182791
  entropy T*S    EENTRO =        -0.00000000
  eigenvalues    EBANDS =       -18.38482737
  atomic energy  EATOM  =        25.06705842
  Solvation  Ediel_sol  =        -0.75692095
  ---------------------------------------------------
  free energy    TOTEN  =        -6.40096444 eV

  energy without entropy =       -6.40096444  energy(sigma->0) =       -6.40096444


--------------------------------------------------------------------------------------------------------




--------------------------------------- Iteration      2(  15)  ---------------------------------------


    POTLOK:  cpu time      2.1655: real time      2.1896
    SETDIJ:  cpu time      0.0872: real time      0.0879
     EDDAV:  cpu time      0.3800: real time      0.3850
       DOS:  cpu time      0.0003: real time      0.0003
    CHARGE:  cpu time      0.0894: real time      0.0908
    MIXING:  cpu time      0.0026: real time      0.0027
    --------------------------------------------
      LOOP:  cpu time      2.7251: real time      2.7562

 eigenvalue-minimisations  :   128
 total energy-change (2. order) : 0.1135924E-04  (-0.3774058E-08)
 number of electron       2.0000000 magnetization 
 augmentation part        0.0331019 magnetization 

 DIPCOR: dipole corrections for dipol
 direction  3 min pos     1,
 dipolmoment           0.000000      0.000000      0.000000 electrons x Angstroem
 Tr[quadrupol]      -380.716024

 energy correction for charged system         0.000000 eV
 dipol+quadrupol energy correction           -0.000000 eV
 added-field ion interaction          0.000000 eV  (added to PSCEN)


 Broyden mixing:
  rms(total) = 0.20157E-04    rms(broyden)= 0.20154E-04
  rms(prec ) = 0.23667E-04
  weight for this iteration     100.00

 eigenvalues of (default mixing * dielectric matrix)
  average eigenvalue GAMMA=   4.0425
 20.1309  8.5037  5.6527  4.3541  3.4812  2.7825  2.5410  2.3398  1.5345  0.9916
  0.9981  1.0270  1.0270  1.2310

 Free energy of the ion-electron system (eV)
  ---------------------------------------------------
  alpha Z        PSCENC =         0.00121808
  Ewald energy   TEWEN  =        10.75953265
  -Hartree energ DENC   =       -27.76578494
  -exchange      EXHF   =         0.00000000
  -V(xc)+E(xc)   XCENC  =         4.71032611
  PAW double counting   =        12.75035047      -12.78182471
  entropy T*S    EENTRO =        -0.00000000
  eigenvalues    EBANDS =       -18.38504797
  atomic energy  EATOM  =        25.06705842
  Solvation  Ediel_sol  =        -0.75678119
  ---------------------------------------------------
  free energy    TOTEN  =        -6.40095308 eV

  energy without entropy =       -6.40095308  energy(sigma->0) =       -6.40095308


--------------------------------------------------------------------------------------------------------




--------------------------------------- Iteration      2(  16)  ---------------------------------------


    POTLOK:  cpu time      2.9656: real time      2.9935
    SETDIJ:  cpu time      0.0883: real time      0.0889
     EDDAV:  cpu time      0.3396: real time      0.3434
       DOS:  cpu time      0.0004: real time      0.0004
    CHARGE:  cpu time      0.0540: real time      0.0551
    MIXING:  cpu time      0.0026: real time      0.0026
    --------------------------------------------
      LOOP:  cpu time      3.4505: real time      3.4839

 eigenvalue-minimisations  :   128
 total energy-change (2. order) :-0.1986089E-04  (-0.1937497E-08)
 number of electron       2.0000000 magnetization 
 augmentation part        0.0331016 magnetization 

 DIPCOR: dipole corrections for dipol
 direction  3 min pos     1,
 dipolmoment           0.000000      0.000000      0.000000 electrons x Angstroem
 Tr[quadrupol]      -380.715170

 energy correction for charged system         0.000000 eV
 dipol+quadrupol energy correction           -0.000000 eV
 added-field ion interaction          0.000000 eV  (added to PSCEN)


 Broyden mixing:
  rms(total) = 0.87594E-05    rms(broyden)= 0.87558E-05
  rms(prec ) = 0.11600E-04
  weight for this iteration     100.00

 eigenvalues of (default mixing * dielectric matrix)
  average eigenvalue GAMMA=   4.4679
 23.0924 10.5778  7.0655  4.8731  3.9652  3.3308  2.6932  2.5152  2.3279  1.5355
  1.0684  0.9902  0.9902  1.0010  0.9928

 Free energy of the ion-electron system (eV)
  ---------------------------------------------------
  alpha Z        PSCENC =         0.00121808
  Ewald energy   TEWEN  =        10.75953265
  -Hartree energ DENC   =       -27.76606376
  -exchange      EXHF   =         0.00000000
  -V(xc)+E(xc)   XCENC  =         4.71036335
  PAW double counting   =        12.75057054      -12.78204624
  entropy T*S    EENTRO =        -0.00000000
  eigenvalues    EBANDS =       -18.38472498
  atomic energy  EATOM  =        25.06705842
  Solvation  Ediel_sol  =        -0.75688100
  ---------------------------------------------------
  free energy    TOTEN  =        -6.40097294 eV

  energy without entropy =       -6.40097294  energy(sigma->0) =       -6.40097294


--------------------------------------------------------------------------------------------------------




--------------------------------------- Iteration      2(  17)  ---------------------------------------


    POTLOK:  cpu time      2.3386: real time      2.3658
    SETDIJ:  cpu time      0.0891: real time      0.0899
     EDDAV:  cpu time      0.1802: real time      0.1823
       DOS:  cpu time      0.0003: real time      0.0003
    CHARGE:  cpu time      0.0546: real time      0.0557
    MIXING:  cpu time      0.0026: real time      0.0027
    --------------------------------------------
      LOOP:  cpu time      2.6656: real time      2.6968

 eigenvalue-minimisations  :    64
 total energy-change (2. order) : 0.4571589E-05  (-0.1081467E-08)
 number of electron       2.0000000 magnetization 
 augmentation part        0.0331017 magnetization 

 DIPCOR: dipole corrections for dipol
 direction  3 min pos     1,
 dipolmoment           0.000000      0.000000     -0.000000 electrons x Angstroem
 Tr[quadrupol]      -380.714482

 energy correction for charged system         0.000000 eV
 dipol+quadrupol energy correction           -0.000000 eV
 added-field ion interaction          0.000000 eV  (added to PSCEN)


 Broyden mixing:
  rms(total) = 0.18485E-05    rms(broyden)= 0.18485E-05
  rms(prec ) = 0.34449E-05
  weight for this iteration     100.00

 eigenvalues of (default mixing * dielectric matrix)
  average eigenvalue GAMMA=   4.6081
 24.8921 12.1394  7.4318  5.1811  4.0564  3.4684  2.8425  2.5838  2.3934  2.1800
  1.5356  1.0637  1.0051  0.9885  0.9885  0.9791

 Free energy of the ion-electron system (eV)
  ---------------------------------------------------
  alpha Z        PSCENC =         0.00121808
  Ewald energy   TEWEN  =        10.75953265
  -Hartree energ DENC   =       -27.76599385
  -exchange      EXHF   =         0.00000000
  -V(xc)+E(xc)   XCENC  =         4.71035111
  PAW double counting   =        12.75040248      -12.78187759
  entropy T*S    EENTRO =        -0.00000000
  eigenvalues    EBANDS =       -18.38482106
  atomic energy  EATOM  =        25.06705842
  Solvation  Ediel_sol  =        -0.75683861
  ---------------------------------------------------
  free energy    TOTEN  =        -6.40096837 eV

  energy without entropy =       -6.40096837  energy(sigma->0) =       -6.40096837


--------------------------------------------------------------------------------------------------------




--------------------------------------- Iteration      2(  18)  ---------------------------------------


    POTLOK:  cpu time      1.9646: real time      1.9850
    SETDIJ:  cpu time      0.0866: real time      0.0872
     EDDAV:  cpu time      0.2640: real time      0.2671
       DOS:  cpu time      0.0003: real time      0.0003
    --------------------------------------------
      LOOP:  cpu time      2.3153: real time      2.3395

 eigenvalue-minimisations  :    96
 total energy-change (2. order) :-0.3044947E-06  (-0.3000977E-10)
 number of electron       2.0000000 magnetization 
 augmentation part        0.0331017 magnetization 

 DIPCOR: dipole corrections for dipol
 direction  3 min pos     1,
 dipolmoment           0.000000      0.000000     -0.000000 electrons x Angstroem
 Tr[quadrupol]      -380.714412

 energy correction for charged system         0.000000 eV
 dipol+quadrupol energy correction           -0.000000 eV
 added-field ion interaction          0.000000 eV  (added to PSCEN)


 Free energy of the ion-electron system (eV)
  ---------------------------------------------------
  alpha Z        PSCENC =         0.00121808
  Ewald energy   TEWEN  =        10.75953265
  -Hartree energ DENC   =       -27.76598620
  -exchange      EXHF   =         0.00000000
  -V(xc)+E(xc)   XCENC  =         4.71034960
  PAW double counting   =        12.75038287      -12.78185779
  entropy T*S    EENTRO =        -0.00000000
  eigenvalues    EBANDS =       -18.38483106
  atomic energy  EATOM  =        25.06705842
  Solvation  Ediel_sol  =        -0.75683524
  ---------------------------------------------------
  free energy    TOTEN  =        -6.40096867 eV

  energy without entropy =       -6.40096867  energy(sigma->0) =       -6.40096867


--------------------------------------------------------------------------------------------------------




 average (electrostatic) potential at core
  the test charge radii are     0.5201
  (the norm of the test charge is              1.0000)
       1 -41.1886       2 -41.1886



 E-fermi :  -8.7172     XC(G=0):  -0.0780     alpha+bet : -0.0069

 Fermi energy:        -8.7172414104

 k-point     1 :       0.0000    0.0000    0.0000
  band No.  band energies     occupation 
      1      -9.1924      2.00000
      2      -0.3977      0.00000
      3      -0.0608      0.00000
      4       0.2452      0.00000
      5       0.2935      0.00000
      6       0.2935      0.00000
      7       0.3387      0.00000
      8       0.3528      0.00000
      9       0.3787      0.00000
     10       0.5750      0.00000
     11       0.5750      0.00000
     12       0.6505      0.00000
     13       0.7126      0.00000
     14       0.7139      0.00000
     15       0.7152      0.00000
     16       0.7237      0.00000
     17       0.7237      0.00000
     18       0.7330      0.00000
     19       0.7377      0.00000
     20       0.7377      0.00000
     21       0.7918      0.00000
     22       0.9917      0.00000
     23       0.9917      0.00000
     24       1.0669      0.00000
     25       1.0873      0.00000
     26       1.0873      0.00000
     27       1.1051      0.00000
     28       1.1138      0.00000
     29       1.1372      0.00000
     30       1.3301      0.00000
     31       1.3301      0.00000
     32       1.4505      0.00000


--------------------------------------------------------------------------------------------------------


 soft charge-density along one line, spin component           1
         0         1         2         3         4         5         6         7         8         9
 total charge-density along one line

 pseudopotential strength for first ion, spin component:           1
 -2.344  -4.038  -0.000  -0.000  -0.002
 -4.038  -6.870  -0.000  -0.000  -0.006
 -0.000  -0.000  -0.351  -0.000  -0.000
 -0.000  -0.000  -0.000  -0.351   0.000
 -0.002  -0.006  -0.000   0.000  -0.346
 total augmentation occupancy for first ion, spin component:           1
  2.421  -0.369  -0.000  -0.000   0.175
 -0.369   0.056   0.000   0.000  -0.027
 -0.000   0.000   0.000   0.000  -0.000
 -0.000   0.000   0.000   0.000  -0.000
  0.175  -0.027  -0.000  -0.000   0.013


------------------------ aborting loop because EDIFF is reached ----------------------------------------


    CHARGE:  cpu time      0.0551: real time      0.0557
    FORLOC:  cpu time      0.0011: real time      0.0011
    FORNL :  cpu time      0.2704: real time      0.2740
    STRESS:  cpu time      0.8586: real time      0.8690
    FORHAR:  cpu time      0.0161: real time      0.0163
    MIXING:  cpu time      0.0023: real time      0.0023
    OFIELD:  cpu time      0.0001: real time      0.0000

 ---------------------------------------------------------------------------------------------

         DFTD3 V3.0 Rev 1        
 Edisp (eV)   -0.00007

 E6    (eV) :    -0.0001
 E8    (eV) :    -0.0000
 % E8        :  5.02
    FORVDW:  cpu time      0.0075: real time      0.0076

  FORCE on cell =-STRESS in cart. coord.  units (eV):
  Direction    XX          YY          ZZ          XY          YZ          ZX
  --------------------------------------------------------------------------------------
  Alpha Z     0.00122     0.00122     0.00122
  Ewald      13.48692    -1.36370    -1.36370    -0.00000     0.00000    -0.00000
  Hartree    11.06188     8.35206     8.35206    -0.00000    -0.00000    -0.00000
  E(xc)      -5.25898    -5.56661    -5.56661    -0.00000    -0.00000    -0.00000
  Local     -29.50124   -15.93103   -15.93103     0.00000     0.00000     0.00000
  n-local    -4.74417    -4.40053    -4.40053     0.00000    -0.00000     0.00000
  augment     0.20703     0.21174     0.21175    -0.00000     0.00000    -0.00000
  Kinetic    11.38341    18.10367    18.10367     0.00000     0.00000     0.00000
  Fock        0.00000     0.00000     0.00000     0.00000     0.00000     0.00000
  vdW         0.00062    -0.00000    -0.00000    -0.00000     0.00000    -0.00000
  -------------------------------------------------------------------------------------
  Total      -3.36331    -0.59317    -0.59317    -0.00000     0.00000    -0.00000
  in kB      -0.67358    -0.11880    -0.11879    -0.00000     0.00000    -0.00000
  external pressure =       -0.30 kB  Pullay stress =        0.00 kB


 VOLUME and BASIS-vectors are now :
 -----------------------------------------------------------------------------
  energy-cutoff  :      400.00
  volume of cell :     8000.00
      direct lattice vectors                 reciprocal lattice vectors
    20.000000000  0.000000000  0.000000000     0.050000000  0.000000000  0.000000000
     0.000000000 20.000000000  0.000000000     0.000000000  0.050000000  0.000000000
     0.000000000  0.000000000 20.000000000     0.000000000  0.000000000  0.050000000

  length of vectors
    20.000000000 20.000000000 20.000000000     0.050000000  0.050000000  0.050000000


 FORCES acting on ions
    electron-ion (+dipol)            ewald-force                    non-local-force                 convergence-correction
 -----------------------------------------------------------------------------------------------
   0.159E+02 -.322E-08 -.264E-06   -.153E+02 0.315E-08 0.215E-06   0.265E+01 0.908E-08 -.148E-07   -.516E-05 0.349E-11 -.686E-11
   -.159E+02 0.322E-08 0.264E-06   0.153E+02 -.315E-08 -.215E-06   -.265E+01 -.903E-08 0.146E-07   0.514E-05 0.358E-11 -.698E-11
 -----------------------------------------------------------------------------------------------
   0.297E-07 -.530E-11 0.107E-10   0.000E+00 -.170E-18 0.315E-18   0.131E-08 0.483E-10 -.234E-09   -.213E-07 0.707E-11 -.138E-10


 POSITION                                       TOTAL-FORCE (eV/Angst)
 -----------------------------------------------------------------------------------
      9.51488     10.00000     10.00000         3.080216      0.000000     -0.000000
     10.48512     10.00000     10.00000        -3.080216     -0.000000      0.000000
 -----------------------------------------------------------------------------------
    total drift:                                0.000000      0.000000     -0.000000


--------------------------------------------------------------------------------------------------------



  FREE ENERGIE OF THE ION-ELECTRON SYSTEM (eV)
  ---------------------------------------------------
  free  energy   TOTEN  =        -6.40104166 eV

  energy  without entropy=       -6.40104166  energy(sigma->0) =       -6.40104166

 d Force = 0.8594579E-01[-0.687E+00, 0.859E+00]  d Energy =-0.4103254E+00 0.496E+00
 d Force = 0.4578329E+01[ 0.341E+01, 0.575E+01]  d Ewald  = 0.4426540E+01 0.152E+00


--------------------------------------------------------------------------------------------------------


    POTLOK:  cpu time      2.1157: real time      2.1376


--------------------------------------------------------------------------------------------------------


 stress matrix after NEB project (eV)
     -3.36331     -0.00000     -0.00000
     -0.00000     -0.59317      0.00000
     -0.00000      0.00000     -0.59317
  FORCES: max atom, RMS     3.080216    3.080216
  FORCE total and by dimension    4.356083    3.080216
  Stress total and by dimension    3.466346    3.363310
 Steepest descent step on ions:
 trial-energy change:    0.410325  1 .order   -0.085946   -0.858628    0.686736
  (g-gl).g = 0.859E+00      g.g   = 0.859E+00  gl.gl    = 0.000E+00
 g(Force)  = 0.859E+00   g(Stress)= 0.000E+00 ortho     = 0.000E+00
 gamma     =   0.00000
 trial     =   1.00000
 opt step  =   0.55562  (harmonic =   0.55562) maximal distance =0.06193738
 next E    =    -7.049900   (d E  =  -0.23853)


--------------------------------------------------------------------------------------------------------


    WAVPRE:  cpu time      0.0048: real time      0.0057
    FEWALD:  cpu time      0.0003: real time      0.0003

 real space projection operators:
  total allocation   :         75.94 KBytes
  max/ min on nodes  :         20.23         17.11

    ORTHCH:  cpu time      0.0201: real time      0.0208
     LOOP+:  cpu time     60.0232: real time     60.6548


--------------------------------------- Ionic step        3  -------------------------------------------




--------------------------------------- Iteration      3(   1)  ---------------------------------------


    POTLOK:  cpu time      3.3312: real time      3.3653
    SETDIJ:  cpu time      0.0875: real time      0.0882
     EDDAV:  cpu time      0.1819: real time      0.1841
       DOS:  cpu time      0.0003: real time      0.0004
    CHARGE:  cpu time      0.0522: real time      0.0533
    MIXING:  cpu time      0.0035: real time      0.0036
    --------------------------------------------
      LOOP:  cpu time      3.6568: real time      3.6948

 eigenvalue-minimisations  :    64
 total energy-change (2. order) :-0.2926526E+00  (-0.2151318E+00)
 number of electron       2.0000000 magnetization 
 augmentation part        0.0358889 magnetization 

 DIPCOR: dipole corrections for dipol
 direction  3 min pos     1,
 dipolmoment           0.000000      0.000000     -0.000000 electrons x Angstroem
 Tr[quadrupol]      -382.604680

 energy correction for charged system         0.000000 eV
 dipol+quadrupol energy correction           -0.000000 eV
 added-field ion interaction          0.000000 eV  (added to PSCEN)


 Broyden mixing:
  rms(total) = 0.46243E-01    rms(broyden)= 0.46216E-01
  rms(prec ) = 0.49022E-01
  weight for this iteration     100.00

 Free energy of the ion-electron system (eV)
  ---------------------------------------------------
  alpha Z        PSCENC =         0.00121808
  Ewald energy   TEWEN  =        12.44676878
  -Hartree energ DENC   =       -28.55183315
  -exchange      EXHF   =         0.00000000
  -V(xc)+E(xc)   XCENC  =         4.80387370
  PAW double counting   =        12.75044589      -12.78192101
  entropy T*S    EENTRO =        -0.00000000
  eigenvalues    EBANDS =       -19.54831832
  atomic energy  EATOM  =        25.06705842
  Solvation  Ediel_sol  =        -0.88091336
  ---------------------------------------------------
  free energy    TOTEN  =        -6.69362096 eV

  energy without entropy =       -6.69362096  energy(sigma->0) =       -6.69362096


--------------------------------------------------------------------------------------------------------




--------------------------------------- Iteration      3(   2)  ---------------------------------------


    POTLOK:  cpu time      2.9964: real time      3.0262
    SETDIJ:  cpu time      0.0905: real time      0.0918
     EDDAV:  cpu time      0.2524: real time      0.2553
       DOS:  cpu time      0.0003: real time      0.0003
    CHARGE:  cpu time      0.0535: real time      0.0545
    MIXING:  cpu time      0.0014: real time      0.0014
    --------------------------------------------
      LOOP:  cpu time      3.3944: real time      3.4295

 eigenvalue-minimisations  :    96
 total energy-change (2. order) :-0.1300878E-01  (-0.2428226E-02)
 number of electron       2.0000000 magnetization 
 augmentation part        0.0357253 magnetization 

 DIPCOR: dipole corrections for dipol
 direction  3 min pos     1,
 dipolmoment           0.000000      0.000000     -0.000000 electrons x Angstroem
 Tr[quadrupol]      -382.604293

 energy correction for charged system         0.000000 eV
 dipol+quadrupol energy correction           -0.000000 eV
 added-field ion interaction          0.000000 eV  (added to PSCEN)


 Broyden mixing:
  rms(total) = 0.20255E-01    rms(broyden)= 0.20253E-01
  rms(prec ) = 0.21442E-01
  weight for this iteration     100.00

 eigenvalues of (default mixing * dielectric matrix)
  average eigenvalue GAMMA=   1.7338
  1.7338

 Free energy of the ion-electron system (eV)
  ---------------------------------------------------
  alpha Z        PSCENC =         0.00121808
  Ewald energy   TEWEN  =        12.44676878
  -Hartree energ DENC   =       -28.78629093
  -exchange      EXHF   =         0.00000000
  -V(xc)+E(xc)   XCENC  =         4.83583571
  PAW double counting   =        14.19549628      -14.22930918
  entropy T*S    EENTRO =        -0.00000000
  eigenvalues    EBANDS =       -19.21301826
  atomic energy  EATOM  =        25.06705842
  Solvation  Ediel_sol  =        -1.02438865
  ---------------------------------------------------
  free energy    TOTEN  =        -6.70662975 eV

  energy without entropy =       -6.70662975  energy(sigma->0) =       -6.70662975


--------------------------------------------------------------------------------------------------------




--------------------------------------- Iteration      3(   3)  ---------------------------------------


    POTLOK:  cpu time      3.0028: real time      3.0334
    SETDIJ:  cpu time      0.0872: real time      0.0878
     EDDAV:  cpu time      0.2538: real time      0.2567
       DOS:  cpu time      0.0004: real time      0.0004
    CHARGE:  cpu time      0.0538: real time      0.0549
    MIXING:  cpu time      0.0018: real time      0.0018
    --------------------------------------------
      LOOP:  cpu time      3.3998: real time      3.4351

 eigenvalue-minimisations  :    96
 total energy-change (2. order) :-0.1441338E-01  (-0.5800686E-03)
 number of electron       2.0000000 magnetization 
 augmentation part        0.0355267 magnetization 

 DIPCOR: dipole corrections for dipol
 direction  3 min pos     1,
 dipolmoment           0.000000      0.000000     -0.000000 electrons x Angstroem
 Tr[quadrupol]      -382.604677

 energy correction for charged system         0.000000 eV
 dipol+quadrupol energy correction           -0.000000 eV
 added-field ion interaction          0.000000 eV  (added to PSCEN)


 Broyden mixing:
  rms(total) = 0.34125E-02    rms(broyden)= 0.34032E-02
  rms(prec ) = 0.36157E-02
  weight for this iteration     100.00

 eigenvalues of (default mixing * dielectric matrix)
  average eigenvalue GAMMA=   1.6076
  1.2237  1.9915

 Free energy of the ion-electron system (eV)
  ---------------------------------------------------
  alpha Z        PSCENC =         0.00121808
  Ewald energy   TEWEN  =        12.44676878
  -Hartree energ DENC   =       -28.96256042
  -exchange      EXHF   =         0.00000000
  -V(xc)+E(xc)   XCENC  =         4.85993343
  PAW double counting   =        15.54001518      -15.57599058
  entropy T*S    EENTRO =        -0.00000000
  eigenvalues    EBANDS =       -19.01541047
  atomic energy  EATOM  =        25.06705842
  Solvation  Ediel_sol  =        -1.08207555
  ---------------------------------------------------
  free energy    TOTEN  =        -6.72104313 eV

  energy without entropy =       -6.72104313  energy(sigma->0) =       -6.72104313


--------------------------------------------------------------------------------------------------------




--------------------------------------- Iteration      3(   4)  ---------------------------------------


    POTLOK:  cpu time      3.0403: real time      3.0708
    SETDIJ:  cpu time      0.0868: real time      0.0878
     EDDAV:  cpu time      0.1803: real time      0.1824
       DOS:  cpu time      0.0003: real time      0.0003
    CHARGE:  cpu time      0.0536: real time      0.0547
    MIXING:  cpu time      0.0022: real time      0.0022
    --------------------------------------------
      LOOP:  cpu time      3.3635: real time      3.3982

 eigenvalue-minimisations  :    64
 total energy-change (2. order) :-0.2742964E-03  (-0.1398905E-04)
 number of electron       2.0000000 magnetization 
 augmentation part        0.0355288 magnetization 

 DIPCOR: dipole corrections for dipol
 direction  3 min pos     1,
 dipolmoment           0.000000      0.000000     -0.000000 electrons x Angstroem
 Tr[quadrupol]      -382.604961

 energy correction for charged system         0.000000 eV
 dipol+quadrupol energy correction           -0.000000 eV
 added-field ion interaction          0.000000 eV  (added to PSCEN)


 Broyden mixing:
  rms(total) = 0.14264E-02    rms(broyden)= 0.14261E-02
  rms(prec ) = 0.16033E-02
  weight for this iteration     100.00

 eigenvalues of (default mixing * dielectric matrix)
  average eigenvalue GAMMA=   1.7301
  1.0157  1.5132  2.6615

 Free energy of the ion-electron system (eV)
  ---------------------------------------------------
  alpha Z        PSCENC =         0.00121808
  Ewald energy   TEWEN  =        12.44676878
  -Hartree energ DENC   =       -28.98317848
  -exchange      EXHF   =         0.00000000
  -V(xc)+E(xc)   XCENC  =         4.86245266
  PAW double counting   =        15.86975210      -15.90614823
  entropy T*S    EENTRO =        -0.00000000
  eigenvalues    EBANDS =       -19.01552455
  atomic energy  EATOM  =        25.06705842
  Solvation  Ediel_sol  =        -1.06371621
  ---------------------------------------------------
  free energy    TOTEN  =        -6.72131742 eV

  energy without entropy =       -6.72131742  energy(sigma->0) =       -6.72131742


--------------------------------------------------------------------------------------------------------




--------------------------------------- Iteration      3(   5)  ---------------------------------------


    POTLOK:  cpu time      2.8654: real time      2.8947
    SETDIJ:  cpu time      0.0872: real time      0.0879
     EDDAV:  cpu time      0.2547: real time      0.2578
       DOS:  cpu time      0.0004: real time      0.0004
    CHARGE:  cpu time      0.0521: real time      0.0532
    MIXING:  cpu time      0.0039: real time      0.0040
    --------------------------------------------
      LOOP:  cpu time      3.2637: real time      3.2979

 eigenvalue-minimisations  :    96
 total energy-change (2. order) :-0.4904744E-03  (-0.4032360E-05)
 number of electron       2.0000000 magnetization 
 augmentation part        0.0355261 magnetization 

 DIPCOR: dipole corrections for dipol
 direction  3 min pos     1,
 dipolmoment           0.000000      0.000000     -0.000000 electrons x Angstroem
 Tr[quadrupol]      -382.605266

 energy correction for charged system         0.000000 eV
 dipol+quadrupol energy correction           -0.000000 eV
 added-field ion interaction          0.000000 eV  (added to PSCEN)


 Broyden mixing:
  rms(total) = 0.51490E-03    rms(broyden)= 0.51487E-03
  rms(prec ) = 0.64491E-03
  weight for this iteration     100.00

 eigenvalues of (default mixing * dielectric matrix)
  average eigenvalue GAMMA=   1.9428
  1.0372  1.3319  2.9979  2.4043

 Free energy of the ion-electron system (eV)
  ---------------------------------------------------
  alpha Z        PSCENC =         0.00121808
  Ewald energy   TEWEN  =        12.44676878
  -Hartree energ DENC   =       -28.99763153
  -exchange      EXHF   =         0.00000000
  -V(xc)+E(xc)   XCENC  =         4.86415722
  PAW double counting   =        16.06627374      -16.10290293
  entropy T*S    EENTRO =        -0.00000000
  eigenvalues    EBANDS =       -19.01323254
  atomic energy  EATOM  =        25.06705842
  Solvation  Ediel_sol  =        -1.05351714
  ---------------------------------------------------
  free energy    TOTEN  =        -6.72180790 eV

  energy without entropy =       -6.72180790  energy(sigma->0) =       -6.72180790


--------------------------------------------------------------------------------------------------------




--------------------------------------- Iteration      3(   6)  ---------------------------------------


    POTLOK:  cpu time      4.4422: real time      4.4806
    SETDIJ:  cpu time      0.0872: real time      0.0880
     EDDAV:  cpu time      0.2607: real time      0.2637
       DOS:  cpu time      0.0003: real time      0.0003
    CHARGE:  cpu time      0.0524: real time      0.0535
    MIXING:  cpu time      0.0036: real time      0.0036
    --------------------------------------------
      LOOP:  cpu time      4.8465: real time      4.8896

 eigenvalue-minimisations  :    96
 total energy-change (2. order) : 0.2207196E-03  (-0.1424203E-05)
 number of electron       2.0000000 magnetization 
 augmentation part        0.0355275 magnetization 

 DIPCOR: dipole corrections for dipol
 direction  3 min pos     1,
 dipolmoment           0.000000      0.000000     -0.000000 electrons x Angstroem
 Tr[quadrupol]      -382.605878

 energy correction for charged system         0.000000 eV
 dipol+quadrupol energy correction           -0.000000 eV
 added-field ion interaction          0.000000 eV  (added to PSCEN)


 Broyden mixing:
  rms(total) = 0.18765E-03    rms(broyden)= 0.18765E-03
  rms(prec ) = 0.27546E-03
  weight for this iteration     100.00

 eigenvalues of (default mixing * dielectric matrix)
  average eigenvalue GAMMA=   2.0470
  3.9115  2.4465  1.0051  1.6603  1.2117

 Free energy of the ion-electron system (eV)
  ---------------------------------------------------
  alpha Z        PSCENC =         0.00121808
  Ewald energy   TEWEN  =        12.44676878
  -Hartree energ DENC   =       -28.99578310
  -exchange      EXHF   =         0.00000000
  -V(xc)+E(xc)   XCENC  =         4.86365845
  PAW double counting   =        16.02530026      -16.06184232
  entropy T*S    EENTRO =        -0.00000000
  eigenvalues    EBANDS =       -19.02086517
  atomic energy  EATOM  =        25.06705842
  Solvation  Ediel_sol  =        -1.04710059
  ---------------------------------------------------
  free energy    TOTEN  =        -6.72158718 eV

  energy without entropy =       -6.72158718  energy(sigma->0) =       -6.72158718


--------------------------------------------------------------------------------------------------------




--------------------------------------- Iteration      3(   7)  ---------------------------------------


    POTLOK:  cpu time      2.7808: real time      2.8100
    SETDIJ:  cpu time      0.0873: real time      0.0880
     EDDAV:  cpu time      0.2548: real time      0.2578
       DOS:  cpu time      0.0004: real time      0.0004
    CHARGE:  cpu time      0.0537: real time      0.0548
    MIXING:  cpu time      0.0018: real time      0.0018
    --------------------------------------------
      LOOP:  cpu time      3.1787: real time      3.2129

 eigenvalue-minimisations  :    96
 total energy-change (2. order) :-0.2918462E-03  (-0.7384255E-06)
 number of electron       2.0000000 magnetization 
 augmentation part        0.0355241 magnetization 

 DIPCOR: dipole corrections for dipol
 direction  3 min pos     1,
 dipolmoment           0.000000      0.000000      0.000000 electrons x Angstroem
 Tr[quadrupol]      -382.606791

 energy correction for charged system         0.000000 eV
 dipol+quadrupol energy correction           -0.000000 eV
 added-field ion interaction          0.000000 eV  (added to PSCEN)


 Broyden mixing:
  rms(total) = 0.10787E-03    rms(broyden)= 0.10777E-03
  rms(prec ) = 0.16460E-03
  weight for this iteration     100.00

 eigenvalues of (default mixing * dielectric matrix)
  average eigenvalue GAMMA=   2.2321
  4.4059  3.0991  2.4144  0.9894  1.0451  1.4388

 Free energy of the ion-electron system (eV)
  ---------------------------------------------------
  alpha Z        PSCENC =         0.00121808
  Ewald energy   TEWEN  =        12.44676878
  -Hartree energ DENC   =       -28.99981764
  -exchange      EXHF   =         0.00000000
  -V(xc)+E(xc)   XCENC  =         4.86407245
  PAW double counting   =        16.02906735      -16.06561873
  entropy T*S    EENTRO =        -0.00000000
  eigenvalues    EBANDS =       -19.01919295
  atomic energy  EATOM  =        25.06705842
  Solvation  Ediel_sol  =        -1.04543479
  ---------------------------------------------------
  free energy    TOTEN  =        -6.72187902 eV

  energy without entropy =       -6.72187902  energy(sigma->0) =       -6.72187902


--------------------------------------------------------------------------------------------------------




--------------------------------------- Iteration      3(   8)  ---------------------------------------


    POTLOK:  cpu time      2.5158: real time      2.5434
    SETDIJ:  cpu time      0.0879: real time      0.0886
     EDDAV:  cpu time      0.2536: real time      0.2567
       DOS:  cpu time      0.0003: real time      0.0003
    CHARGE:  cpu time      0.0539: real time      0.0549
    MIXING:  cpu time      0.0018: real time      0.0018
    --------------------------------------------
      LOOP:  cpu time      2.9133: real time      2.9458

 eigenvalue-minimisations  :    96
 total energy-change (2. order) : 0.4918830E-04  (-0.3467346E-06)
 number of electron       2.0000000 magnetization 
 augmentation part        0.0355253 magnetization 

 DIPCOR: dipole corrections for dipol
 direction  3 min pos     1,
 dipolmoment           0.000000      0.000000      0.000000 electrons x Angstroem
 Tr[quadrupol]      -382.608435

 energy correction for charged system         0.000000 eV
 dipol+quadrupol energy correction           -0.000000 eV
 added-field ion interaction          0.000000 eV  (added to PSCEN)


 Broyden mixing:
  rms(total) = 0.60689E-04    rms(broyden)= 0.60650E-04
  rms(prec ) = 0.10047E-03
  weight for this iteration     100.00

 eigenvalues of (default mixing * dielectric matrix)
  average eigenvalue GAMMA=   2.3236
  4.6050  3.4644  2.4021  2.4021  0.9962  0.9962  1.3992

 Free energy of the ion-electron system (eV)
  ---------------------------------------------------
  alpha Z        PSCENC =         0.00121808
  Ewald energy   TEWEN  =        12.44676878
  -Hartree energ DENC   =       -29.00113102
  -exchange      EXHF   =         0.00000000
  -V(xc)+E(xc)   XCENC  =         4.86416543
  PAW double counting   =        16.02542957      -16.06198623
  entropy T*S    EENTRO =        -0.00000000
  eigenvalues    EBANDS =       -19.01980899
  atomic energy  EATOM  =        25.06705842
  Solvation  Ediel_sol  =        -1.04354388
  ---------------------------------------------------
  free energy    TOTEN  =        -6.72182984 eV

  energy without entropy =       -6.72182984  energy(sigma->0) =       -6.72182984


--------------------------------------------------------------------------------------------------------




--------------------------------------- Iteration      3(   9)  ---------------------------------------


    POTLOK:  cpu time      2.4435: real time      2.4700
    SETDIJ:  cpu time      0.0871: real time      0.0878
     EDDAV:  cpu time      0.2531: real time      0.2560
       DOS:  cpu time      0.0004: real time      0.0004
    CHARGE:  cpu time      0.0614: real time      0.0625
    MIXING:  cpu time      0.0035: real time      0.0035
    --------------------------------------------
      LOOP:  cpu time      2.8489: real time      2.8801

 eigenvalue-minimisations  :    96
 total energy-change (2. order) : 0.4263730E-04  (-0.6381542E-07)
 number of electron       2.0000000 magnetization 
 augmentation part        0.0355257 magnetization 

 DIPCOR: dipole corrections for dipol
 direction  3 min pos     1,
 dipolmoment           0.000000      0.000000      0.000000 electrons x Angstroem
 Tr[quadrupol]      -382.610436

 energy correction for charged system         0.000000 eV
 dipol+quadrupol energy correction           -0.000000 eV
 added-field ion interaction          0.000000 eV  (added to PSCEN)


 Broyden mixing:
  rms(total) = 0.63731E-04    rms(broyden)= 0.63728E-04
  rms(prec ) = 0.89301E-04
  weight for this iteration     100.00

 eigenvalues of (default mixing * dielectric matrix)
  average eigenvalue GAMMA=   2.4340
  6.1664  3.7383  2.7389  2.3837  1.4349  1.0661  0.9840  0.9598

 Free energy of the ion-electron system (eV)
  ---------------------------------------------------
  alpha Z        PSCENC =         0.00121808
  Ewald energy   TEWEN  =        12.44676878
  -Hartree energ DENC   =       -29.00055620
  -exchange      EXHF   =         0.00000000
  -V(xc)+E(xc)   XCENC  =         4.86401762
  PAW double counting   =        16.02384503      -16.06039150
  entropy T*S    EENTRO =        -0.00000000
  eigenvalues    EBANDS =       -19.02079869
  atomic energy  EATOM  =        25.06705842
  Solvation  Ediel_sol  =        -1.04294875
  ---------------------------------------------------
  free energy    TOTEN  =        -6.72178720 eV

  energy without entropy =       -6.72178720  energy(sigma->0) =       -6.72178720


--------------------------------------------------------------------------------------------------------




--------------------------------------- Iteration      3(  10)  ---------------------------------------


    POTLOK:  cpu time      2.1658: real time      2.1881
    SETDIJ:  cpu time      0.0874: real time      0.0880
     EDDAV:  cpu time      0.3432: real time      0.3475
       DOS:  cpu time      0.0004: real time      0.0004
    CHARGE:  cpu time      0.0540: real time      0.0552
    MIXING:  cpu time      0.0077: real time      0.0077
    --------------------------------------------
      LOOP:  cpu time      2.6585: real time      2.6869

 eigenvalue-minimisations  :   128
 total energy-change (2. order) :-0.6793627E-04  (-0.2631189E-07)
 number of electron       2.0000000 magnetization 
 augmentation part        0.0355248 magnetization 

 DIPCOR: dipole corrections for dipol
 direction  3 min pos     1,
 dipolmoment           0.000000      0.000000      0.000000 electrons x Angstroem
 Tr[quadrupol]      -382.612187

 energy correction for charged system         0.000000 eV
 dipol+quadrupol energy correction           -0.000000 eV
 added-field ion interaction          0.000000 eV  (added to PSCEN)


 Broyden mixing:
  rms(total) = 0.26744E-04    rms(broyden)= 0.26712E-04
  rms(prec ) = 0.55082E-04
  weight for this iteration     100.00

 eigenvalues of (default mixing * dielectric matrix)
  average eigenvalue GAMMA=   2.8153
  8.0249  4.6164  3.3771  2.5482  2.3404  1.4221  0.9982  0.9982  1.0121

 Free energy of the ion-electron system (eV)
  ---------------------------------------------------
  alpha Z        PSCENC =         0.00121808
  Ewald energy   TEWEN  =        12.44676878
  -Hartree energ DENC   =       -29.00130455
  -exchange      EXHF   =         0.00000000
  -V(xc)+E(xc)   XCENC  =         4.86407786
  PAW double counting   =        16.02766188      -16.06421273
  entropy T*S    EENTRO =        -0.00000000
  eigenvalues    EBANDS =       -19.02020940
  atomic energy  EATOM  =        25.06705842
  Solvation  Ediel_sol  =        -1.04291349
  ---------------------------------------------------
  free energy    TOTEN  =        -6.72185513 eV

  energy without entropy =       -6.72185513  energy(sigma->0) =       -6.72185513


--------------------------------------------------------------------------------------------------------




--------------------------------------- Iteration      3(  11)  ---------------------------------------


    POTLOK:  cpu time      2.3228: real time      2.3466
    SETDIJ:  cpu time      0.0872: real time      0.0880
     EDDAV:  cpu time      0.1795: real time      0.1818
       DOS:  cpu time      0.0003: real time      0.0003
    CHARGE:  cpu time      0.0537: real time      0.0549
    MIXING:  cpu time      0.0025: real time      0.0026
    --------------------------------------------
      LOOP:  cpu time      2.6461: real time      2.6741

 eigenvalue-minimisations  :    64
 total energy-change (2. order) :-0.4426245E-05  (-0.4525700E-07)
 number of electron       2.0000000 magnetization 
 augmentation part        0.0355249 magnetization 

 DIPCOR: dipole corrections for dipol
 direction  3 min pos     1,
 dipolmoment           0.000000      0.000000      0.000000 electrons x Angstroem
 Tr[quadrupol]      -382.616797

 energy correction for charged system         0.000000 eV
 dipol+quadrupol energy correction           -0.000000 eV
 added-field ion interaction          0.000000 eV  (added to PSCEN)


 Broyden mixing:
  rms(total) = 0.14743E-04    rms(broyden)= 0.14742E-04
  rms(prec ) = 0.33179E-04
  weight for this iteration     100.00

 eigenvalues of (default mixing * dielectric matrix)
  average eigenvalue GAMMA=   3.0308
  9.5438  5.1116  3.8704  2.9118  2.4309  2.0042  1.4164  1.0071  1.0071  1.0046

 Free energy of the ion-electron system (eV)
  ---------------------------------------------------
  alpha Z        PSCENC =         0.00121808
  Ewald energy   TEWEN  =        12.44676878
  -Hartree energ DENC   =       -29.00179613
  -exchange      EXHF   =         0.00000000
  -V(xc)+E(xc)   XCENC  =         4.86409419
  PAW double counting   =        16.02617913      -16.06273166
  entropy T*S    EENTRO =        -0.00000000
  eigenvalues    EBANDS =       -19.02025083
  atomic energy  EATOM  =        25.06705842
  Solvation  Ediel_sol  =        -1.04239955
  ---------------------------------------------------
  free energy    TOTEN  =        -6.72185956 eV

  energy without entropy =       -6.72185956  energy(sigma->0) =       -6.72185956


--------------------------------------------------------------------------------------------------------




--------------------------------------- Iteration      3(  12)  ---------------------------------------


    POTLOK:  cpu time      2.2217: real time      2.2449
    SETDIJ:  cpu time      0.0865: real time      0.0872
     EDDAV:  cpu time      0.3396: real time      0.3434
       DOS:  cpu time      0.0003: real time      0.0003
    CHARGE:  cpu time      0.0540: real time      0.0551
    MIXING:  cpu time      0.0022: real time      0.0022
    --------------------------------------------
      LOOP:  cpu time      2.7043: real time      2.7331

 eigenvalue-minimisations  :   128
 total energy-change (2. order) : 0.3717682E-05  (-0.3298034E-08)
 number of electron       2.0000000 magnetization 
 augmentation part        0.0355249 magnetization 

 DIPCOR: dipole corrections for dipol
 direction  3 min pos     1,
 dipolmoment           0.000000      0.000000      0.000000 electrons x Angstroem
 Tr[quadrupol]      -382.619485

 energy correction for charged system         0.000000 eV
 dipol+quadrupol energy correction           -0.000000 eV
 added-field ion interaction          0.000000 eV  (added to PSCEN)


 Broyden mixing:
  rms(total) = 0.12767E-04    rms(broyden)= 0.12766E-04
  rms(prec ) = 0.25056E-04
  weight for this iteration     100.00

 eigenvalues of (default mixing * dielectric matrix)
  average eigenvalue GAMMA=   3.2207
 11.4906  6.0291  4.1222  3.2385  2.6396  2.3750  1.4257  1.0014  1.0014  1.0058
  1.0987

 Free energy of the ion-electron system (eV)
  ---------------------------------------------------
  alpha Z        PSCENC =         0.00121808
  Ewald energy   TEWEN  =        12.44676878
  -Hartree energ DENC   =       -29.00186073
  -exchange      EXHF   =         0.00000000
  -V(xc)+E(xc)   XCENC  =         4.86408756
  PAW double counting   =        16.02598631      -16.06253831
  entropy T*S    EENTRO =        -0.00000000
  eigenvalues    EBANDS =       -19.02033260
  atomic energy  EATOM  =        25.06705842
  Solvation  Ediel_sol  =        -1.04224337
  ---------------------------------------------------
  free energy    TOTEN  =        -6.72185584 eV

  energy without entropy =       -6.72185584  energy(sigma->0) =       -6.72185584


--------------------------------------------------------------------------------------------------------




--------------------------------------- Iteration      3(  13)  ---------------------------------------


    POTLOK:  cpu time      2.1957: real time      2.2182
    SETDIJ:  cpu time      0.0931: real time      0.0938
     EDDAV:  cpu time      0.1780: real time      0.1805
       DOS:  cpu time      0.0003: real time      0.0003
    CHARGE:  cpu time      0.0547: real time      0.0557
    MIXING:  cpu time      0.0022: real time      0.0022
    --------------------------------------------
      LOOP:  cpu time      2.5240: real time      2.5507

 eigenvalue-minimisations  :    64
 total energy-change (2. order) :-0.9326242E-05  (-0.5724715E-08)
 number of electron       2.0000000 magnetization 
 augmentation part        0.0355247 magnetization 

 DIPCOR: dipole corrections for dipol
 direction  3 min pos     1,
 dipolmoment           0.000000      0.000000      0.000000 electrons x Angstroem
 Tr[quadrupol]      -382.622687

 energy correction for charged system         0.000000 eV
 dipol+quadrupol energy correction           -0.000000 eV
 added-field ion interaction          0.000000 eV  (added to PSCEN)


 Broyden mixing:
  rms(total) = 0.91241E-05    rms(broyden)= 0.91164E-05
  rms(prec ) = 0.16500E-04
  weight for this iteration     100.00

 eigenvalues of (default mixing * dielectric matrix)
  average eigenvalue GAMMA=   3.6912
 15.4029  7.2478  4.6080  3.7433  2.7972  2.6941  2.3683  1.4219  0.9892  0.9892
  1.0060  1.0260

 Free energy of the ion-electron system (eV)
  ---------------------------------------------------
  alpha Z        PSCENC =         0.00121808
  Ewald energy   TEWEN  =        12.44676878
  -Hartree energ DENC   =       -29.00186143
  -exchange      EXHF   =         0.00000000
  -V(xc)+E(xc)   XCENC  =         4.86407331
  PAW double counting   =        16.02664120      -16.06319197
  entropy T*S    EENTRO =        -0.00000000
  eigenvalues    EBANDS =       -19.02028973
  atomic energy  EATOM  =        25.06705842
  Solvation  Ediel_sol  =        -1.04228184
  ---------------------------------------------------
  free energy    TOTEN  =        -6.72186517 eV

  energy without entropy =       -6.72186517  energy(sigma->0) =       -6.72186517


--------------------------------------------------------------------------------------------------------




--------------------------------------- Iteration      3(  14)  ---------------------------------------


    POTLOK:  cpu time      2.1960: real time      2.2185
    SETDIJ:  cpu time      0.0871: real time      0.0878
     EDDAV:  cpu time      0.1810: real time      0.1834
       DOS:  cpu time      0.0003: real time      0.0003
    CHARGE:  cpu time      0.0534: real time      0.0545
    MIXING:  cpu time      0.0024: real time      0.0024
    --------------------------------------------
      LOOP:  cpu time      2.5202: real time      2.5469

 eigenvalue-minimisations  :    64
 total energy-change (2. order) : 0.3226670E-05  (-0.3602818E-08)
 number of electron       2.0000000 magnetization 
 augmentation part        0.0355249 magnetization 

 DIPCOR: dipole corrections for dipol
 direction  3 min pos     1,
 dipolmoment           0.000000      0.000000      0.000000 electrons x Angstroem
 Tr[quadrupol]      -382.624850

 energy correction for charged system         0.000000 eV
 dipol+quadrupol energy correction           -0.000000 eV
 added-field ion interaction          0.000000 eV  (added to PSCEN)


 Broyden mixing:
  rms(total) = 0.72641E-05    rms(broyden)= 0.72545E-05
  rms(prec ) = 0.11091E-04
  weight for this iteration     100.00

 eigenvalues of (default mixing * dielectric matrix)
  average eigenvalue GAMMA=   3.7141
 17.0801  7.5623  4.9138  3.8165  3.0107  2.4726  2.1373  1.8551  1.4219  1.0234
  0.9974  0.9974  0.9943

 Free energy of the ion-electron system (eV)
  ---------------------------------------------------
  alpha Z        PSCENC =         0.00121808
  Ewald energy   TEWEN  =        12.44676878
  -Hartree energ DENC   =       -29.00204288
  -exchange      EXHF   =         0.00000000
  -V(xc)+E(xc)   XCENC  =         4.86409009
  PAW double counting   =        16.02644566      -16.06299820
  entropy T*S    EENTRO =        -0.00000000
  eigenvalues    EBANDS =       -19.02028068
  atomic energy  EATOM  =        25.06705842
  Solvation  Ediel_sol  =        -1.04212122
  ---------------------------------------------------
  free energy    TOTEN  =        -6.72186194 eV

  energy without entropy =       -6.72186194  energy(sigma->0) =       -6.72186194


--------------------------------------------------------------------------------------------------------




--------------------------------------- Iteration      3(  15)  ---------------------------------------


    POTLOK:  cpu time      2.0717: real time      2.0941
    SETDIJ:  cpu time      0.0875: real time      0.0881
     EDDAV:  cpu time      0.3390: real time      0.3429
       DOS:  cpu time      0.0003: real time      0.0003
    CHARGE:  cpu time      0.0535: real time      0.0546
    MIXING:  cpu time      0.0024: real time      0.0025
    --------------------------------------------
      LOOP:  cpu time      2.5545: real time      2.5824

 eigenvalue-minimisations  :   128
 total energy-change (2. order) :-0.2317055E-05  (-0.7143370E-09)
 number of electron       2.0000000 magnetization 
 augmentation part        0.0355248 magnetization 

 DIPCOR: dipole corrections for dipol
 direction  3 min pos     1,
 dipolmoment           0.000000      0.000000      0.000000 electrons x Angstroem
 Tr[quadrupol]      -382.625503

 energy correction for charged system         0.000000 eV
 dipol+quadrupol energy correction           -0.000000 eV
 added-field ion interaction          0.000000 eV  (added to PSCEN)


 Broyden mixing:
  rms(total) = 0.50008E-05    rms(broyden)= 0.49972E-05
  rms(prec ) = 0.82488E-05
  weight for this iteration     100.00

 eigenvalues of (default mixing * dielectric matrix)
  average eigenvalue GAMMA=   3.9830
 19.7969  8.3876  5.6852  4.1432  3.6653  2.8025  2.5119  2.2985  1.4206  0.9920
  1.0007  1.0007  1.0288  1.0288

 Free energy of the ion-electron system (eV)
  ---------------------------------------------------
  alpha Z        PSCENC =         0.00121808
  Ewald energy   TEWEN  =        12.44676878
  -Hartree energ DENC   =       -29.00194350
  -exchange      EXHF   =         0.00000000
  -V(xc)+E(xc)   XCENC  =         4.86407465
  PAW double counting   =        16.02636766      -16.06291870
  entropy T*S    EENTRO =        -0.00000000
  eigenvalues    EBANDS =       -19.02030727
  atomic energy  EATOM  =        25.06705842
  Solvation  Ediel_sol  =        -1.04218239
  ---------------------------------------------------
  free energy    TOTEN  =        -6.72186426 eV

  energy without entropy =       -6.72186426  energy(sigma->0) =       -6.72186426


--------------------------------------------------------------------------------------------------------




--------------------------------------- Iteration      3(  16)  ---------------------------------------


    POTLOK:  cpu time      2.2280: real time      2.2518
    SETDIJ:  cpu time      0.0871: real time      0.0877
     EDDAV:  cpu time      0.2547: real time      0.2575
       DOS:  cpu time      0.0004: real time      0.0004
    CHARGE:  cpu time      0.0535: real time      0.0545
    MIXING:  cpu time      0.0027: real time      0.0027
    --------------------------------------------
      LOOP:  cpu time      2.6264: real time      2.6547

 eigenvalue-minimisations  :    96
 total energy-change (2. order) :-0.3004462E-05  (-0.6727774E-09)
 number of electron       2.0000000 magnetization 
 augmentation part        0.0355248 magnetization 

 DIPCOR: dipole corrections for dipol
 direction  3 min pos     1,
 dipolmoment           0.000000      0.000000     -0.000000 electrons x Angstroem
 Tr[quadrupol]      -382.626375

 energy correction for charged system         0.000000 eV
 dipol+quadrupol energy correction           -0.000000 eV
 added-field ion interaction          0.000000 eV  (added to PSCEN)


 Broyden mixing:
  rms(total) = 0.29492E-05    rms(broyden)= 0.29478E-05
  rms(prec ) = 0.45475E-05
  weight for this iteration     100.00

 eigenvalues of (default mixing * dielectric matrix)
  average eigenvalue GAMMA=   4.2568
 21.7906  9.8237  6.5545  4.8154  3.4776  3.4776  2.5880  2.5717  2.3170  1.4206
  0.9908  0.9908  1.0140  1.0140  1.0064

 Free energy of the ion-electron system (eV)
  ---------------------------------------------------
  alpha Z        PSCENC =         0.00121808
  Ewald energy   TEWEN  =        12.44676878
  -Hartree energ DENC   =       -29.00198528
  -exchange      EXHF   =         0.00000000
  -V(xc)+E(xc)   XCENC  =         4.86408202
  PAW double counting   =        16.02648811      -16.06303966
  entropy T*S    EENTRO =        -0.00000000
  eigenvalues    EBANDS =       -19.02026864
  atomic energy  EATOM  =        25.06705842
  Solvation  Ediel_sol  =        -1.04218911
  ---------------------------------------------------
  free energy    TOTEN  =        -6.72186726 eV

  energy without entropy =       -6.72186726  energy(sigma->0) =       -6.72186726


--------------------------------------------------------------------------------------------------------




--------------------------------------- Iteration      3(  17)  ---------------------------------------


    POTLOK:  cpu time      2.8669: real time      2.8933
    SETDIJ:  cpu time      0.0869: real time      0.0875
     EDDAV:  cpu time      0.3347: real time      0.3385
       DOS:  cpu time      0.0005: real time      0.0004
    CHARGE:  cpu time      0.0542: real time      0.0552
    MIXING:  cpu time      0.0030: real time      0.0030
    --------------------------------------------
      LOOP:  cpu time      3.3462: real time      3.3781

 eigenvalue-minimisations  :    96
 total energy-change (2. order) : 0.2555304E-05  (-0.3377210E-09)
 number of electron       2.0000000 magnetization 
 augmentation part        0.0355248 magnetization 

 DIPCOR: dipole corrections for dipol
 direction  3 min pos     1,
 dipolmoment           0.000000      0.000000     -0.000000 electrons x Angstroem
 Tr[quadrupol]      -382.626675

 energy correction for charged system         0.000000 eV
 dipol+quadrupol energy correction           -0.000000 eV
 added-field ion interaction          0.000000 eV  (added to PSCEN)


 Broyden mixing:
  rms(total) = 0.20137E-05    rms(broyden)= 0.20097E-05
  rms(prec ) = 0.25744E-05
  weight for this iteration     100.00

 eigenvalues of (default mixing * dielectric matrix)
  average eigenvalue GAMMA=   4.3656
 23.6879 11.4103  7.1659  5.0016  3.9659  3.3639  2.7601  2.5042  2.2907  1.4204
  0.9855  0.9855  1.0109  1.0109  1.0216  1.2649

 Free energy of the ion-electron system (eV)
  ---------------------------------------------------
  alpha Z        PSCENC =         0.00121808
  Ewald energy   TEWEN  =        12.44676878
  -Hartree energ DENC   =       -29.00196516
  -exchange      EXHF   =         0.00000000
  -V(xc)+E(xc)   XCENC  =         4.86407941
  PAW double counting   =        16.02644723      -16.06299903
  entropy T*S    EENTRO =        -0.00000000
  eigenvalues    EBANDS =       -19.02029400
  atomic energy  EATOM  =        25.06705842
  Solvation  Ediel_sol  =        -1.04217845
  ---------------------------------------------------
  free energy    TOTEN  =        -6.72186471 eV

  energy without entropy =       -6.72186471  energy(sigma->0) =       -6.72186471


--------------------------------------------------------------------------------------------------------




--------------------------------------- Iteration      3(  18)  ---------------------------------------


    POTLOK:  cpu time      1.9031: real time      1.9236
    SETDIJ:  cpu time      0.0878: real time      0.0885
     EDDAV:  cpu time      0.3388: real time      0.3426
       DOS:  cpu time      0.0003: real time      0.0003
    --------------------------------------------
      LOOP:  cpu time      2.3299: real time      2.3548

 eigenvalue-minimisations  :   128
 total energy-change (2. order) :-0.9686878E-06  (-0.4881073E-10)
 number of electron       2.0000000 magnetization 
 augmentation part        0.0355248 magnetization 

 DIPCOR: dipole corrections for dipol
 direction  3 min pos     1,
 dipolmoment           0.000000      0.000000     -0.000000 electrons x Angstroem
 Tr[quadrupol]      -382.626738

 energy correction for charged system         0.000000 eV
 dipol+quadrupol energy correction           -0.000000 eV
 added-field ion interaction          0.000000 eV  (added to PSCEN)


 Free energy of the ion-electron system (eV)
  ---------------------------------------------------
  alpha Z        PSCENC =         0.00121808
  Ewald energy   TEWEN  =        12.44676878
  -Hartree energ DENC   =       -29.00194816
  -exchange      EXHF   =         0.00000000
  -V(xc)+E(xc)   XCENC  =         4.86407679
  PAW double counting   =        16.02645553      -16.06300705
  entropy T*S    EENTRO =        -0.00000000
  eigenvalues    EBANDS =       -19.02029557
  atomic energy  EATOM  =        25.06705842
  Solvation  Ediel_sol  =        -1.04219251
  ---------------------------------------------------
  free energy    TOTEN  =        -6.72186568 eV

  energy without entropy =       -6.72186568  energy(sigma->0) =       -6.72186568


--------------------------------------------------------------------------------------------------------




 average (electrostatic) potential at core
  the test charge radii are     0.5201
  (the norm of the test charge is              1.0000)
       1 -41.3496       2 -41.3496



 E-fermi :  -9.0407     XC(G=0):  -0.0732     alpha+bet : -0.0069

 Fermi energy:        -9.0406740148

 k-point     1 :       0.0000    0.0000    0.0000
  band No.  band energies     occupation 
      1      -9.5101      2.00000
      2      -0.0564      0.00000
      3      -0.0477      0.00000
      4       0.2465      0.00000
      5       0.2998      0.00000
      6       0.2998      0.00000
      7       0.3512      0.00000
      8       0.3605      0.00000
      9       0.4116      0.00000
     10       0.5846      0.00000
     11       0.5846      0.00000
     12       0.6363      0.00000
     13       0.7192      0.00000
     14       0.7258      0.00000
     15       0.7258      0.00000
     16       0.7285      0.00000
     17       0.7299      0.00000
     18       0.7299      0.00000
     19       0.7308      0.00000
     20       0.7460      0.00000
     21       0.8337      0.00000
     22       0.9962      0.00000
     23       0.9962      0.00000
     24       1.0769      0.00000
     25       1.0881      0.00000
     26       1.1013      0.00000
     27       1.1013      0.00000
     28       1.1025      0.00000
     29       1.1772      0.00000
     30       1.3387      0.00000
     31       1.3387      0.00000
     32       1.4543      0.00000


--------------------------------------------------------------------------------------------------------


 soft charge-density along one line, spin component           1
         0         1         2         3         4         5         6         7         8         9
 total charge-density along one line

 pseudopotential strength for first ion, spin component:           1
 -2.344  -4.039  -0.000  -0.000  -0.002
 -4.039  -6.872  -0.000  -0.000  -0.006
 -0.000  -0.000  -0.349  -0.000  -0.000
 -0.000  -0.000  -0.000  -0.349  -0.000
 -0.002  -0.006  -0.000  -0.000  -0.346
 total augmentation occupancy for first ion, spin component:           1
  2.747  -0.447   0.000   0.000   0.200
 -0.447   0.073  -0.000  -0.000  -0.033
  0.000  -0.000   0.000   0.000   0.000
  0.000  -0.000   0.000   0.000   0.000
  0.200  -0.033   0.000   0.000   0.015


------------------------ aborting loop because EDIFF is reached ----------------------------------------


    CHARGE:  cpu time      0.0526: real time      0.0532
    FORLOC:  cpu time      0.0033: real time      0.0033
    FORNL :  cpu time      0.2761: real time      0.2793
    STRESS:  cpu time      0.8649: real time      0.8753
    FORHAR:  cpu time      0.0161: real time      0.0163
    MIXING:  cpu time      0.0046: real time      0.0046
    OFIELD:  cpu time      0.0000: real time      0.0000

 ---------------------------------------------------------------------------------------------

         DFTD3 V3.0 Rev 1        
 Edisp (eV)   -0.00002

 E6    (eV) :    -0.0000
 E8    (eV) :    -0.0000
 % E8        :  4.93
    FORVDW:  cpu time      0.0079: real time      0.0080

  FORCE on cell =-STRESS in cart. coord.  units (eV):
  Direction    XX          YY          ZZ          XY          YZ          ZX
  --------------------------------------------------------------------------------------
  Alpha Z     0.00122     0.00122     0.00122
  Ewald      15.17347    -1.36335    -1.36335    -0.00000     0.00000    -0.00000
  Hartree    11.30443     8.84877     8.84877    -0.00000    -0.00000    -0.00000
  E(xc)      -5.44977    -5.73680    -5.73680    -0.00000    -0.00000    -0.00000
  Local     -30.15903   -16.91256   -16.91256     0.00000     0.00000     0.00000
  n-local    -5.18847    -4.76010    -4.76010     0.00000     0.00000     0.00000
  augment     0.25326     0.22382     0.22383     0.00000    -0.00000     0.00000
  Kinetic    12.26551    18.80656    18.80656     0.00000     0.00000     0.00000
  Fock        0.00000     0.00000     0.00000     0.00000     0.00000     0.00000
  vdW         0.00032    -0.00000    -0.00000    -0.00000     0.00000    -0.00000
  -------------------------------------------------------------------------------------
  Total      -1.79907    -0.89244    -0.89244     0.00000    -0.00000     0.00000
  in kB      -0.36030    -0.17873    -0.17873     0.00000    -0.00000     0.00000
  external pressure =       -0.24 kB  Pullay stress =        0.00 kB


 VOLUME and BASIS-vectors are now :
 -----------------------------------------------------------------------------
  energy-cutoff  :      400.00
  volume of cell :     8000.00
      direct lattice vectors                 reciprocal lattice vectors
    20.000000000  0.000000000  0.000000000     0.050000000  0.000000000  0.000000000
     0.000000000 20.000000000  0.000000000     0.000000000  0.050000000  0.000000000
     0.000000000  0.000000000 20.000000000     0.000000000  0.000000000  0.050000000

  length of vectors
    20.000000000 20.000000000 20.000000000     0.050000000  0.050000000  0.050000000


 FORCES acting on ions
    electron-ion (+dipol)            ewald-force                    non-local-force                 convergence-correction
 -----------------------------------------------------------------------------------------------
   0.172E+02 -.739E-09 -.696E-07   -.190E+02 0.984E-09 0.137E-06   0.312E+01 -.215E-07 -.785E-06   -.262E-05 0.670E-13 0.242E-12
   -.172E+02 0.739E-09 0.696E-07   0.190E+02 -.984E-09 -.137E-06   -.312E+01 0.215E-07 0.786E-06   0.262E-05 0.491E-13 -.317E-13
 -----------------------------------------------------------------------------------------------
   0.233E-08 -.765E-13 -.270E-12   0.000E+00 -.164E-18 0.316E-18   0.307E-09 -.326E-10 0.571E-10   -.175E-08 0.116E-12 0.210E-12


 POSITION                                       TOTAL-FORCE (eV/Angst)
 -----------------------------------------------------------------------------------
      9.56442     10.00000     10.00000         1.178834     -0.000000     -0.000001
     10.43558     10.00000     10.00000        -1.178834      0.000000      0.000001
 -----------------------------------------------------------------------------------
    total drift:                                0.000000     -0.000000      0.000000


--------------------------------------------------------------------------------------------------------



  FREE ENERGIE OF THE ION-ELECTRON SYSTEM (eV)
  ---------------------------------------------------
  free  energy   TOTEN  =        -6.72188924 eV

  energy  without entropy=       -6.72188924  energy(sigma->0) =       -6.72188924

 d Force = 0.2109845E+00[ 0.117E+00, 0.305E+00]  d Energy = 0.3208476E+00-0.110E+00
 d Force =-0.1697038E+01[-0.188E+01,-0.151E+01]  d Ewald  =-0.1687236E+01-0.980E-02


--------------------------------------------------------------------------------------------------------


    POTLOK:  cpu time      2.0495: real time      2.0707


--------------------------------------------------------------------------------------------------------


 stress matrix after NEB project (eV)
     -1.79907      0.00000      0.00000
      0.00000     -0.89244     -0.00000
      0.00000     -0.00000     -0.89244
  FORCES: max atom, RMS     1.178834    1.178834
  FORCE total and by dimension    1.667123    1.178834
  Stress total and by dimension    2.197626    1.799071


--------------------------------------------------------------------------------------------------------


    WAVPRE:  cpu time      0.0044: real time      0.0054
    FEWALD:  cpu time      0.0003: real time      0.0003

 real space projection operators:
  total allocation   :         74.77 KBytes
  max/ min on nodes  :         20.23         16.56

    ORTHCH:  cpu time      0.0227: real time      0.0235
     LOOP+:  cpu time     58.1681: real time     58.7777


--------------------------------------- Ionic step        4  -------------------------------------------




--------------------------------------- Iteration      4(   1)  ---------------------------------------


    POTLOK:  cpu time      3.1474: real time      3.1850
    SETDIJ:  cpu time      0.0897: real time      0.0905
     EDDAV:  cpu time      0.1798: real time      0.1823
       DOS:  cpu time      0.0003: real time      0.0003
    CHARGE:  cpu time      0.0538: real time      0.0550
    MIXING:  cpu time      0.0013: real time      0.0014
    --------------------------------------------
      LOOP:  cpu time      3.4724: real time      3.5145

 eigenvalue-minimisations  :    64
 total energy-change (2. order) :-0.4956489E-01  (-0.1738942E-01)
 number of electron       2.0000001 magnetization 
 augmentation part        0.0364210 magnetization 

 DIPCOR: dipole corrections for dipol
 direction  3 min pos     1,
 dipolmoment           0.000000      0.000000     -0.000000 electrons x Angstroem
 Tr[quadrupol]      -383.182514

 energy correction for charged system         0.000000 eV
 dipol+quadrupol energy correction           -0.000000 eV
 added-field ion interaction          0.000000 eV  (added to PSCEN)


 Broyden mixing:
  rms(total) = 0.13316E-01    rms(broyden)= 0.13309E-01
  rms(prec ) = 0.14062E-01
  weight for this iteration     100.00

 Free energy of the ion-electron system (eV)
  ---------------------------------------------------
  alpha Z        PSCENC =         0.00121808
  Ewald energy   TEWEN  =        13.01641613
  -Hartree energ DENC   =       -29.23577894
  -exchange      EXHF   =         0.00000000
  -V(xc)+E(xc)   XCENC  =         4.89216174
  PAW double counting   =        16.02644774      -16.06299933
  entropy T*S    EENTRO =        -0.00000000
  eigenvalues    EBANDS =       -19.35270156
  atomic energy  EATOM  =        25.06705842
  Solvation  Ediel_sol  =        -1.12325187
  ---------------------------------------------------
  free energy    TOTEN  =        -6.77142960 eV

  energy without entropy =       -6.77142960  energy(sigma->0) =       -6.77142960


--------------------------------------------------------------------------------------------------------




--------------------------------------- Iteration      4(   2)  ---------------------------------------


    POTLOK:  cpu time      2.8131: real time      2.8482
    SETDIJ:  cpu time      0.0872: real time      0.0880
     EDDAV:  cpu time      0.2523: real time      0.2556
       DOS:  cpu time      0.0003: real time      0.0003
    CHARGE:  cpu time      0.0535: real time      0.0546
    MIXING:  cpu time      0.0025: real time      0.0025
    --------------------------------------------
      LOOP:  cpu time      3.2091: real time      3.2492

 eigenvalue-minimisations  :    96
 total energy-change (2. order) :-0.6958408E-02  (-0.1323579E-03)
 number of electron       2.0000001 magnetization 
 augmentation part        0.0363607 magnetization 

 DIPCOR: dipole corrections for dipol
 direction  3 min pos     1,
 dipolmoment           0.000000      0.000000     -0.000000 electrons x Angstroem
 Tr[quadrupol]      -383.182411

 energy correction for charged system         0.000000 eV
 dipol+quadrupol energy correction           -0.000000 eV
 added-field ion interaction          0.000000 eV  (added to PSCEN)


 Broyden mixing:
  rms(total) = 0.62286E-02    rms(broyden)= 0.62282E-02
  rms(prec ) = 0.65541E-02
  weight for this iteration     100.00

 eigenvalues of (default mixing * dielectric matrix)
  average eigenvalue GAMMA=   1.8402
  1.8402

 Free energy of the ion-electron system (eV)
  ---------------------------------------------------
  alpha Z        PSCENC =         0.00121808
  Ewald energy   TEWEN  =        13.01641613
  -Hartree energ DENC   =       -29.30218574
  -exchange      EXHF   =         0.00000000
  -V(xc)+E(xc)   XCENC  =         4.90124384
  PAW double counting   =        16.54298980      -16.58033858
  entropy T*S    EENTRO =        -0.00000000
  eigenvalues    EBANDS =       -19.26738155
  atomic energy  EATOM  =        25.06705842
  Solvation  Ediel_sol  =        -1.15740840
  ---------------------------------------------------
  free energy    TOTEN  =        -6.77838801 eV

  energy without entropy =       -6.77838801  energy(sigma->0) =       -6.77838801


--------------------------------------------------------------------------------------------------------




--------------------------------------- Iteration      4(   3)  ---------------------------------------


    POTLOK:  cpu time      2.8298: real time      2.8643
    SETDIJ:  cpu time      0.0874: real time      0.0881
     EDDAV:  cpu time      0.2585: real time      0.2628
       DOS:  cpu time      0.0004: real time      0.0004
    CHARGE:  cpu time      0.0538: real time      0.0549
    MIXING:  cpu time      0.0015: real time      0.0015
    --------------------------------------------
      LOOP:  cpu time      3.2313: real time      3.2721

 eigenvalue-minimisations  :    96
 total energy-change (2. order) :-0.5636695E-02  (-0.5273205E-04)
 number of electron       2.0000001 magnetization 
 augmentation part        0.0362963 magnetization 

 DIPCOR: dipole corrections for dipol
 direction  3 min pos     1,
 dipolmoment           0.000000      0.000000     -0.000000 electrons x Angstroem
 Tr[quadrupol]      -383.182515

 energy correction for charged system         0.000000 eV
 dipol+quadrupol energy correction           -0.000000 eV
 added-field ion interaction          0.000000 eV  (added to PSCEN)


 Broyden mixing:
  rms(total) = 0.10512E-02    rms(broyden)= 0.10483E-02
  rms(prec ) = 0.10982E-02
  weight for this iteration     100.00

 eigenvalues of (default mixing * dielectric matrix)
  average eigenvalue GAMMA=   1.8006
  1.4779  2.1233

 Free energy of the ion-electron system (eV)
  ---------------------------------------------------
  alpha Z        PSCENC =         0.00121808
  Ewald energy   TEWEN  =        13.01641613
  -Hartree energ DENC   =       -29.35654773
  -exchange      EXHF   =         0.00000000
  -V(xc)+E(xc)   XCENC  =         4.90864969
  PAW double counting   =        17.06062196      -17.09874516
  entropy T*S    EENTRO =        -0.00000000
  eigenvalues    EBANDS =       -19.20522340
  atomic energy  EATOM  =        25.06705842
  Solvation  Ediel_sol  =        -1.17747269
  ---------------------------------------------------
  free energy    TOTEN  =        -6.78402470 eV

  energy without entropy =       -6.78402470  energy(sigma->0) =       -6.78402470


--------------------------------------------------------------------------------------------------------




--------------------------------------- Iteration      4(   4)  ---------------------------------------


    POTLOK:  cpu time      3.1349: real time      3.1718
    SETDIJ:  cpu time      0.0872: real time      0.0880
     EDDAV:  cpu time      0.3420: real time      0.3463
       DOS:  cpu time      0.0003: real time      0.0003
    CHARGE:  cpu time      0.0538: real time      0.0550
    MIXING:  cpu time      0.0018: real time      0.0018
    --------------------------------------------
      LOOP:  cpu time      3.6200: real time      3.6632

 eigenvalue-minimisations  :   128
 total energy-change (2. order) : 0.3215837E-03  (-0.2915480E-05)
 number of electron       2.0000001 magnetization 
 augmentation part        0.0363026 magnetization 

 DIPCOR: dipole corrections for dipol
 direction  3 min pos     1,
 dipolmoment           0.000000      0.000000     -0.000000 electrons x Angstroem
 Tr[quadrupol]      -383.182594

 energy correction for charged system         0.000000 eV
 dipol+quadrupol energy correction           -0.000000 eV
 added-field ion interaction          0.000000 eV  (added to PSCEN)


 Broyden mixing:
  rms(total) = 0.37679E-03    rms(broyden)= 0.37677E-03
  rms(prec ) = 0.42139E-03
  weight for this iteration     100.00

 eigenvalues of (default mixing * dielectric matrix)
  average eigenvalue GAMMA=   1.7070
  2.6357  0.9718  1.5136

 Free energy of the ion-electron system (eV)
  ---------------------------------------------------
  alpha Z        PSCENC =         0.00121808
  Ewald energy   TEWEN  =        13.01641613
  -Hartree energ DENC   =       -29.36006254
  -exchange      EXHF   =         0.00000000
  -V(xc)+E(xc)   XCENC  =         4.90902991
  PAW double counting   =        17.17741228      -17.21566123
  entropy T*S    EENTRO =        -0.00000000
  eigenvalues    EBANDS =       -19.21036980
  atomic energy  EATOM  =        25.06705842
  Solvation  Ediel_sol  =        -1.16874437
  ---------------------------------------------------
  free energy    TOTEN  =        -6.78370312 eV

  energy without entropy =       -6.78370312  energy(sigma->0) =       -6.78370312


--------------------------------------------------------------------------------------------------------




--------------------------------------- Iteration      4(   5)  ---------------------------------------


    POTLOK:  cpu time      2.6763: real time      2.7149
    SETDIJ:  cpu time      0.0873: real time      0.0880
     EDDAV:  cpu time      0.3448: real time      0.3496
       DOS:  cpu time      0.0004: real time      0.0004
    CHARGE:  cpu time      0.0540: real time      0.0552
    MIXING:  cpu time      0.0016: real time      0.0016
    --------------------------------------------
      LOOP:  cpu time      3.1644: real time      3.2096

 eigenvalue-minimisations  :   128
 total energy-change (2. order) :-0.2722042E-03  (-0.2371774E-06)
 number of electron       2.0000001 magnetization 
 augmentation part        0.0363004 magnetization 

 DIPCOR: dipole corrections for dipol
 direction  3 min pos     1,
 dipolmoment           0.000000      0.000000     -0.000000 electrons x Angstroem
 Tr[quadrupol]      -383.182659

 energy correction for charged system         0.000000 eV
 dipol+quadrupol energy correction           -0.000000 eV
 added-field ion interaction          0.000000 eV  (added to PSCEN)


 Broyden mixing:
  rms(total) = 0.14286E-03    rms(broyden)= 0.14284E-03
  rms(prec ) = 0.18182E-03
  weight for this iteration     100.00

 eigenvalues of (default mixing * dielectric matrix)
  average eigenvalue GAMMA=   1.8891
  2.9735  2.2594  1.0659  1.2576

 Free energy of the ion-electron system (eV)
  ---------------------------------------------------
  alpha Z        PSCENC =         0.00121808
  Ewald energy   TEWEN  =        13.01641613
  -Hartree energ DENC   =       -29.36361074
  -exchange      EXHF   =         0.00000000
  -V(xc)+E(xc)   XCENC  =         4.90945718
  PAW double counting   =        17.22678617      -17.26509254
  entropy T*S    EENTRO =        -0.00000000
  eigenvalues    EBANDS =       -19.20834756
  atomic energy  EATOM  =        25.06705842
  Solvation  Ediel_sol  =        -1.16786047
  ---------------------------------------------------
  free energy    TOTEN  =        -6.78397532 eV

  energy without entropy =       -6.78397532  energy(sigma->0) =       -6.78397532


--------------------------------------------------------------------------------------------------------




--------------------------------------- Iteration      4(   6)  ---------------------------------------


    POTLOK:  cpu time      4.9832: real time      5.0321
    SETDIJ:  cpu time      0.1252: real time      0.1262
     EDDAV:  cpu time      0.3777: real time      0.3825
       DOS:  cpu time      0.0004: real time      0.0009
    CHARGE:  cpu time      0.0536: real time      0.0542
    MIXING:  cpu time      0.0017: real time      0.0017
    --------------------------------------------
      LOOP:  cpu time      5.5418: real time      5.5975

 eigenvalue-minimisations  :   128
 total energy-change (2. order) : 0.5891598E-04  (-0.1122657E-06)
 number of electron       2.0000001 magnetization 
 augmentation part        0.0363005 magnetization 

 DIPCOR: dipole corrections for dipol
 direction  3 min pos     1,
 dipolmoment           0.000000      0.000000     -0.000000 electrons x Angstroem
 Tr[quadrupol]      -383.182819

 energy correction for charged system         0.000000 eV
 dipol+quadrupol energy correction           -0.000000 eV
 added-field ion interaction          0.000000 eV  (added to PSCEN)


 Broyden mixing:
  rms(total) = 0.53089E-04    rms(broyden)= 0.53084E-04
  rms(prec ) = 0.78968E-04
  weight for this iteration     100.00

 eigenvalues of (default mixing * dielectric matrix)
  average eigenvalue GAMMA=   1.9984
  3.6784  2.5067  1.6064  1.0003  1.2003

 Free energy of the ion-electron system (eV)
  ---------------------------------------------------
  alpha Z        PSCENC =         0.00121808
  Ewald energy   TEWEN  =        13.01641613
  -Hartree energ DENC   =       -29.36334740
  -exchange      EXHF   =         0.00000000
  -V(xc)+E(xc)   XCENC  =         4.90935787
  PAW double counting   =        17.21776994      -17.25605507
  entropy T*S    EENTRO =        -0.00000000
  eigenvalues    EBANDS =       -19.21016135
  atomic energy  EATOM  =        25.06705842
  Solvation  Ediel_sol  =        -1.16617305
  ---------------------------------------------------
  free energy    TOTEN  =        -6.78391641 eV

  energy without entropy =       -6.78391641  energy(sigma->0) =       -6.78391641


--------------------------------------------------------------------------------------------------------




--------------------------------------- Iteration      4(   7)  ---------------------------------------


    POTLOK:  cpu time      2.6143: real time      2.6452
    SETDIJ:  cpu time      0.0880: real time      0.0887
     EDDAV:  cpu time      0.1803: real time      0.1828
       DOS:  cpu time      0.0004: real time      0.0004
    CHARGE:  cpu time      0.0537: real time      0.0549
    MIXING:  cpu time      0.0018: real time      0.0018
    --------------------------------------------
      LOOP:  cpu time      2.9385: real time      2.9738

 eigenvalue-minimisations  :    64
 total energy-change (2. order) :-0.6182910E-04  (-0.4731292E-07)
 number of electron       2.0000001 magnetization 
 augmentation part        0.0362997 magnetization 

 DIPCOR: dipole corrections for dipol
 direction  3 min pos     1,
 dipolmoment           0.000000      0.000000     -0.000000 electrons x Angstroem
 Tr[quadrupol]      -383.183040

 energy correction for charged system         0.000000 eV
 dipol+quadrupol energy correction           -0.000000 eV
 added-field ion interaction          0.000000 eV  (added to PSCEN)


 Broyden mixing:
  rms(total) = 0.21581E-04    rms(broyden)= 0.21535E-04
  rms(prec ) = 0.42696E-04
  weight for this iteration     100.00

 eigenvalues of (default mixing * dielectric matrix)
  average eigenvalue GAMMA=   2.2834
  4.6040  3.1153  2.4588  1.4453  0.9981  1.0790

 Free energy of the ion-electron system (eV)
  ---------------------------------------------------
  alpha Z        PSCENC =         0.00121808
  Ewald energy   TEWEN  =        13.01641613
  -Hartree energ DENC   =       -29.36413407
  -exchange      EXHF   =         0.00000000
  -V(xc)+E(xc)   XCENC  =         4.90943400
  PAW double counting   =        17.21479923      -17.25308142
  entropy T*S    EENTRO =        -0.00000000
  eigenvalues    EBANDS =       -19.20986931
  atomic energy  EATOM  =        25.06705842
  Solvation  Ediel_sol  =        -1.16581929
  ---------------------------------------------------
  free energy    TOTEN  =        -6.78397824 eV

  energy without entropy =       -6.78397824  energy(sigma->0) =       -6.78397824


--------------------------------------------------------------------------------------------------------




--------------------------------------- Iteration      4(   8)  ---------------------------------------


    POTLOK:  cpu time      2.3102: real time      2.3377
    SETDIJ:  cpu time      0.0922: real time      0.0930
     EDDAV:  cpu time      0.1785: real time      0.1815
       DOS:  cpu time      0.0003: real time      0.0003
    CHARGE:  cpu time      0.0532: real time      0.0543
    MIXING:  cpu time      0.0025: real time      0.0025
    --------------------------------------------
      LOOP:  cpu time      2.6369: real time      2.6692

 eigenvalue-minimisations  :    64
 total energy-change (2. order) :-0.1459027E-05  (-0.4769585E-07)
 number of electron       2.0000001 magnetization 
 augmentation part        0.0362999 magnetization 

 DIPCOR: dipole corrections for dipol
 direction  3 min pos     1,
 dipolmoment           0.000000      0.000000      0.000000 electrons x Angstroem
 Tr[quadrupol]      -383.183535

 energy correction for charged system         0.000000 eV
 dipol+quadrupol energy correction           -0.000000 eV
 added-field ion interaction          0.000000 eV  (added to PSCEN)


 Broyden mixing:
  rms(total) = 0.16488E-04    rms(broyden)= 0.16485E-04
  rms(prec ) = 0.28201E-04
  weight for this iteration     100.00

 eigenvalues of (default mixing * dielectric matrix)
  average eigenvalue GAMMA=   2.5330
  5.5855  3.8696  1.0084  1.0084  1.3895  2.5648  2.3051

 Free energy of the ion-electron system (eV)
  ---------------------------------------------------
  alpha Z        PSCENC =         0.00121808
  Ewald energy   TEWEN  =        13.01641613
  -Hartree energ DENC   =       -29.36485405
  -exchange      EXHF   =         0.00000000
  -V(xc)+E(xc)   XCENC  =         4.90950403
  PAW double counting   =        17.21586273      -17.25414930
  entropy T*S    EENTRO =        -0.00000000
  eigenvalues    EBANDS =       -19.20987309
  atomic energy  EATOM  =        25.06705842
  Solvation  Ediel_sol  =        -1.16516265
  ---------------------------------------------------
  free energy    TOTEN  =        -6.78397969 eV

  energy without entropy =       -6.78397969  energy(sigma->0) =       -6.78397969


--------------------------------------------------------------------------------------------------------




--------------------------------------- Iteration      4(   9)  ---------------------------------------


    POTLOK:  cpu time      2.2817: real time      2.3097
    SETDIJ:  cpu time      0.0883: real time      0.0892
     EDDAV:  cpu time      0.1780: real time      0.1804
       DOS:  cpu time      0.0003: real time      0.0003
    CHARGE:  cpu time      0.0564: real time      0.0575
    MIXING:  cpu time      0.0030: real time      0.0031
    --------------------------------------------
      LOOP:  cpu time      2.6077: real time      2.6403

 eigenvalue-minimisations  :    64
 total energy-change (2. order) : 0.1491028E-04  (-0.7634377E-08)
 number of electron       2.0000001 magnetization 
 augmentation part        0.0363000 magnetization 

 DIPCOR: dipole corrections for dipol
 direction  3 min pos     1,
 dipolmoment           0.000000      0.000000      0.000000 electrons x Angstroem
 Tr[quadrupol]      -383.184105

 energy correction for charged system         0.000000 eV
 dipol+quadrupol energy correction           -0.000000 eV
 added-field ion interaction          0.000000 eV  (added to PSCEN)


 Broyden mixing:
  rms(total) = 0.12933E-04    rms(broyden)= 0.12931E-04
  rms(prec ) = 0.21272E-04
  weight for this iteration     100.00

 eigenvalues of (default mixing * dielectric matrix)
  average eigenvalue GAMMA=   2.4414
  6.1369  3.8220  2.7148  2.4349  1.4244  1.0649  0.9669  0.9669

 Free energy of the ion-electron system (eV)
  ---------------------------------------------------
  alpha Z        PSCENC =         0.00121808
  Ewald energy   TEWEN  =        13.01641613
  -Hartree energ DENC   =       -29.36479615
  -exchange      EXHF   =         0.00000000
  -V(xc)+E(xc)   XCENC  =         4.90947812
  PAW double counting   =        17.21568749      -17.25397211
  entropy T*S    EENTRO =        -0.00000000
  eigenvalues    EBANDS =       -19.21009930
  atomic energy  EATOM  =        25.06705842
  Solvation  Ediel_sol  =        -1.16495548
  ---------------------------------------------------
  free energy    TOTEN  =        -6.78396478 eV

  energy without entropy =       -6.78396478  energy(sigma->0) =       -6.78396478


--------------------------------------------------------------------------------------------------------




--------------------------------------- Iteration      4(  10)  ---------------------------------------


    POTLOK:  cpu time      2.1208: real time      2.1515
    SETDIJ:  cpu time      0.0868: real time      0.0879
     EDDAV:  cpu time      0.1816: real time      0.1840
       DOS:  cpu time      0.0004: real time      0.0004
    CHARGE:  cpu time      0.0536: real time      0.0547
    MIXING:  cpu time      0.0020: real time      0.0020
    --------------------------------------------
      LOOP:  cpu time      2.4451: real time      2.4806

 eigenvalue-minimisations  :    64
 total energy-change (2. order) :-0.2187361E-04  (-0.5373490E-08)
 number of electron       2.0000001 magnetization 
 augmentation part        0.0362996 magnetization 

 DIPCOR: dipole corrections for dipol
 direction  3 min pos     1,
 dipolmoment           0.000000      0.000000      0.000000 electrons x Angstroem
 Tr[quadrupol]      -383.184740

 energy correction for charged system         0.000000 eV
 dipol+quadrupol energy correction           -0.000000 eV
 added-field ion interaction          0.000000 eV  (added to PSCEN)


 Broyden mixing:
  rms(total) = 0.10282E-04    rms(broyden)= 0.10264E-04
  rms(prec ) = 0.16482E-04
  weight for this iteration     100.00

 eigenvalues of (default mixing * dielectric matrix)
  average eigenvalue GAMMA=   2.8127
  7.9799  4.5887  3.3511  2.5659  2.3946  1.4160  1.0059  1.0059  1.0061

 Free energy of the ion-electron system (eV)
  ---------------------------------------------------
  alpha Z        PSCENC =         0.00121808
  Ewald energy   TEWEN  =        13.01641613
  -Hartree energ DENC   =       -29.36486501
  -exchange      EXHF   =         0.00000000
  -V(xc)+E(xc)   XCENC  =         4.90947434
  PAW double counting   =        17.21561302      -17.25389647
  entropy T*S    EENTRO =        -0.00000000
  eigenvalues    EBANDS =       -19.20997142
  atomic energy  EATOM  =        25.06705842
  Solvation  Ediel_sol  =        -1.16503375
  ---------------------------------------------------
  free energy    TOTEN  =        -6.78398666 eV

  energy without entropy =       -6.78398666  energy(sigma->0) =       -6.78398666


--------------------------------------------------------------------------------------------------------




--------------------------------------- Iteration      4(  11)  ---------------------------------------


    POTLOK:  cpu time      2.1658: real time      2.1928
    SETDIJ:  cpu time      0.0870: real time      0.0877
     EDDAV:  cpu time      0.3424: real time      0.3468
       DOS:  cpu time      0.0004: real time      0.0004
    CHARGE:  cpu time      0.0543: real time      0.0554
    MIXING:  cpu time      0.0021: real time      0.0024
    --------------------------------------------
      LOOP:  cpu time      2.6520: real time      2.6854

 eigenvalue-minimisations  :   128
 total energy-change (2. order) : 0.4465013E-05  (-0.3917471E-08)
 number of electron       2.0000001 magnetization 
 augmentation part        0.0362997 magnetization 

 DIPCOR: dipole corrections for dipol
 direction  3 min pos     1,
 dipolmoment           0.000000      0.000000      0.000000 electrons x Angstroem
 Tr[quadrupol]      -383.185871

 energy correction for charged system         0.000000 eV
 dipol+quadrupol energy correction           -0.000000 eV
 added-field ion interaction          0.000000 eV  (added to PSCEN)


 Broyden mixing:
  rms(total) = 0.45064E-05    rms(broyden)= 0.45018E-05
  rms(prec ) = 0.95800E-05
  weight for this iteration     100.00

 eigenvalues of (default mixing * dielectric matrix)
  average eigenvalue GAMMA=   2.9738
  9.1815  4.4987  4.4987  2.5724  2.3361  2.2007  1.4159  1.0034  1.0151  1.0151

 Free energy of the ion-electron system (eV)
  ---------------------------------------------------
  alpha Z        PSCENC =         0.00121808
  Ewald energy   TEWEN  =        13.01641613
  -Hartree energ DENC   =       -29.36499893
  -exchange      EXHF   =         0.00000000
  -V(xc)+E(xc)   XCENC  =         4.90948169
  PAW double counting   =        17.21559377      -17.25387872
  entropy T*S    EENTRO =        -0.00000000
  eigenvalues    EBANDS =       -19.21002076
  atomic energy  EATOM  =        25.06705842
  Solvation  Ediel_sol  =        -1.16485188
  ---------------------------------------------------
  free energy    TOTEN  =        -6.78398219 eV

  energy without entropy =       -6.78398219  energy(sigma->0) =       -6.78398219


--------------------------------------------------------------------------------------------------------




--------------------------------------- Iteration      4(  12)  ---------------------------------------


    POTLOK:  cpu time      2.1674: real time      2.1944
    SETDIJ:  cpu time      0.0870: real time      0.0878
     EDDAV:  cpu time      0.3368: real time      0.3411
       DOS:  cpu time      0.0003: real time      0.0003
    --------------------------------------------
      LOOP:  cpu time      2.5914: real time      2.6235

 eigenvalue-minimisations  :   128
 total energy-change (2. order) : 0.4126166E-06  (-0.6931877E-09)
 number of electron       2.0000001 magnetization 
 augmentation part        0.0362997 magnetization 

 DIPCOR: dipole corrections for dipol
 direction  3 min pos     1,
 dipolmoment           0.000000      0.000000      0.000000 electrons x Angstroem
 Tr[quadrupol]      -383.186752

 energy correction for charged system         0.000000 eV
 dipol+quadrupol energy correction           -0.000000 eV
 added-field ion interaction          0.000000 eV  (added to PSCEN)


 Free energy of the ion-electron system (eV)
  ---------------------------------------------------
  alpha Z        PSCENC =         0.00121808
  Ewald energy   TEWEN  =        13.01641613
  -Hartree energ DENC   =       -29.36501137
  -exchange      EXHF   =         0.00000000
  -V(xc)+E(xc)   XCENC  =         4.90947828
  PAW double counting   =        17.21557639      -17.25386085
  entropy T*S    EENTRO =        -0.00000000
  eigenvalues    EBANDS =       -19.21005632
  atomic energy  EATOM  =        25.06705842
  Solvation  Ediel_sol  =        -1.16480054
  ---------------------------------------------------
  free energy    TOTEN  =        -6.78398178 eV

  energy without entropy =       -6.78398178  energy(sigma->0) =       -6.78398178


--------------------------------------------------------------------------------------------------------




 average (electrostatic) potential at core
  the test charge radii are     0.5201
  (the norm of the test charge is              1.0001)
       1 -41.4012       2 -41.4012



 E-fermi :  -9.1253     XC(G=0):  -0.0805     alpha+bet : -0.0069

 Fermi energy:        -9.1253434801

 k-point     1 :       0.0000    0.0000    0.0000
  band No.  band energies     occupation 
      1      -9.6050      2.00000
      2      -0.0616      0.00000
      3       0.0276      0.00000
      4       0.2362      0.00000
      5       0.3033      0.00000
      6       0.3033      0.00000
      7       0.3423      0.00000
      8       0.3444      0.00000
      9       0.4023      0.00000
     10       0.5829      0.00000
     11       0.5829      0.00000
     12       0.6296      0.00000
     13       0.7066      0.00000
     14       0.7197      0.00000
     15       0.7211      0.00000
     16       0.7211      0.00000
     17       0.7223      0.00000
     18       0.7271      0.00000
     19       0.7271      0.00000
     20       0.7308      0.00000
     21       0.8281      0.00000
     22       0.9906      0.00000
     23       0.9906      0.00000
     24       1.0615      0.00000
     25       1.0841      0.00000
     26       1.0841      0.00000
     27       1.1044      0.00000
     28       1.1100      0.00000
     29       1.1667      0.00000
     30       1.3409      0.00000
     31       1.3409      0.00000
     32       1.4495      0.00000


--------------------------------------------------------------------------------------------------------


 soft charge-density along one line, spin component           1
         0         1         2         3         4         5         6         7         8         9
 total charge-density along one line

 pseudopotential strength for first ion, spin component:           1
 -2.344  -4.039  -0.000  -0.000  -0.002
 -4.039  -6.873  -0.000  -0.000  -0.005
 -0.000  -0.000  -0.347  -0.000  -0.000
 -0.000  -0.000  -0.000  -0.347  -0.000
 -0.002  -0.005  -0.000  -0.000  -0.347
 total augmentation occupancy for first ion, spin component:           1
  2.863  -0.476   0.000   0.000   0.208
 -0.476   0.079  -0.000  -0.000  -0.035
  0.000  -0.000   0.000   0.000   0.000
  0.000  -0.000   0.000   0.000   0.000
  0.208  -0.035   0.000   0.000   0.015


------------------------ aborting loop because EDIFF is reached ----------------------------------------


    CHARGE:  cpu time      0.0546: real time      0.0552
    FORLOC:  cpu time      0.0010: real time      0.0010
    FORNL :  cpu time      0.2973: real time      0.3015
    STRESS:  cpu time      0.8531: real time      0.8646
    FORHAR:  cpu time      0.0159: real time      0.0161
    MIXING:  cpu time      0.0018: real time      0.0019
    OFIELD:  cpu time      0.0000: real time      0.0000

 ---------------------------------------------------------------------------------------------

         DFTD3 V3.0 Rev 1        
 Edisp (eV)   -0.00001

 E6    (eV) :    -0.0000
 E8    (eV) :    -0.0000
 % E8        :  4.88
    FORVDW:  cpu time      0.0079: real time      0.0081

  FORCE on cell =-STRESS in cart. coord.  units (eV):
  Direction    XX          YY          ZZ          XY          YZ          ZX
  --------------------------------------------------------------------------------------
  Alpha Z     0.00122     0.00122     0.00122
  Ewald      15.74291    -1.36325    -1.36325     0.00000     0.00000    -0.00000
  Hartree    11.37161     8.99671     8.99671    -0.00000    -0.00000    -0.00000
  E(xc)      -5.50708    -5.78682    -5.78682    -0.00000     0.00000    -0.00000
  Local     -30.32484   -17.22231   -17.22231     0.00000     0.00000     0.00000
  n-local    -5.33834    -4.87889    -4.87889    -0.00000    -0.00000     0.00000
  augment     0.27851     0.22610     0.22611     0.00000    -0.00000     0.00000
  Kinetic    12.55726    19.00899    19.00899     0.00000     0.00000     0.00000
  Fock        0.00000     0.00000     0.00000     0.00000     0.00000     0.00000
  vdW         0.00020    -0.00000    -0.00000     0.00000    -0.00000    -0.00000
  -------------------------------------------------------------------------------------
  Total      -1.21856    -1.01825    -1.01824     0.00000    -0.00000     0.00000
  in kB      -0.24404    -0.20393    -0.20393     0.00000    -0.00000     0.00000
  external pressure =       -0.22 kB  Pullay stress =        0.00 kB


 VOLUME and BASIS-vectors are now :
 -----------------------------------------------------------------------------
  energy-cutoff  :      400.00
  volume of cell :     8000.00
      direct lattice vectors                 reciprocal lattice vectors
    20.000000000  0.000000000  0.000000000     0.050000000  0.000000000  0.000000000
     0.000000000 20.000000000  0.000000000     0.000000000  0.050000000  0.000000000
     0.000000000  0.000000000 20.000000000     0.000000000  0.000000000  0.050000000

  length of vectors
    20.000000000 20.000000000 20.000000000     0.050000000  0.050000000  0.050000000


 FORCES acting on ions
    electron-ion (+dipol)            ewald-force                    non-local-force                 convergence-correction
 -----------------------------------------------------------------------------------------------
   0.175E+02 0.971E-10 -.450E-07   -.203E+02 -.209E-16 0.995E-07   0.325E+01 -.572E-08 -.186E-06   0.140E-05 0.326E-13 -.238E-13
   -.175E+02 -.955E-10 0.450E-07   0.203E+02 0.208E-16 -.995E-07   -.325E+01 0.574E-08 0.186E-06   -.140E-05 0.124E-13 0.374E-14
 -----------------------------------------------------------------------------------------------
   -.526E-10 0.143E-11 -.170E-12   0.000E+00 -.169E-18 0.314E-18   -.107E-09 0.197E-10 0.400E-09   0.408E-10 0.450E-13 -.200E-13


 POSITION                                       TOTAL-FORCE (eV/Angst)
 -----------------------------------------------------------------------------------
      9.57894     10.00000     10.00000         0.335614     -0.000000     -0.000000
     10.42106     10.00000     10.00000        -0.335614      0.000000      0.000000
 -----------------------------------------------------------------------------------
    total drift:                               -0.000000      0.000000      0.000000


--------------------------------------------------------------------------------------------------------



  FREE ENERGIE OF THE ION-ELECTRON SYSTEM (eV)
  ---------------------------------------------------
  free  energy   TOTEN  =        -6.78399635 eV

  energy  without entropy=       -6.78399635  energy(sigma->0) =       -6.78399635

 d Force = 0.2198310E-01[ 0.974E-02, 0.342E-01]  d Energy = 0.6210711E-01-0.401E-01
 d Force =-0.5699747E+00[-0.589E+00,-0.551E+00]  d Ewald  =-0.5696473E+00-0.327E-03


--------------------------------------------------------------------------------------------------------


    POTLOK:  cpu time      2.2901: real time      2.3209


--------------------------------------------------------------------------------------------------------


 stress matrix after NEB project (eV)
     -1.21856      0.00000      0.00000
      0.00000     -1.01825     -0.00000
      0.00000     -0.00000     -1.01824
  FORCES: max atom, RMS     0.335614    0.335614
  FORCE total and by dimension    0.474630    0.335614
  Stress total and by dimension    1.886407    1.218556


--------------------------------------------------------------------------------------------------------


    WAVPRE:  cpu time      0.0048: real time      0.0055
    FEWALD:  cpu time      0.0003: real time      0.0003

 real space projection operators:
  total allocation   :         74.45 KBytes
  max/ min on nodes  :         20.23         16.88

    ORTHCH:  cpu time      0.0191: real time      0.0195
     LOOP+:  cpu time     41.7474: real time     42.2661


--------------------------------------- Ionic step        5  -------------------------------------------




--------------------------------------- Iteration      5(   1)  ---------------------------------------


    POTLOK:  cpu time      3.0059: real time      3.0431
    SETDIJ:  cpu time      0.0878: real time      0.0887
     EDDAV:  cpu time      0.1785: real time      0.1812
       DOS:  cpu time      0.0003: real time      0.0003
    CHARGE:  cpu time      0.0525: real time      0.0536
    MIXING:  cpu time      0.0025: real time      0.0025
    --------------------------------------------
      LOOP:  cpu time      3.3274: real time      3.3694

 eigenvalue-minimisations  :    64
 total energy-change (2. order) :-0.1287045E-01  (-0.2246982E-02)
 number of electron       2.0000001 magnetization 
 augmentation part        0.0366337 magnetization 

 DIPCOR: dipole corrections for dipol
 direction  3 min pos     1,
 dipolmoment           0.000000      0.000000     -0.000000 electrons x Angstroem
 Tr[quadrupol]      -383.391193

 energy correction for charged system         0.000000 eV
 dipol+quadrupol energy correction           -0.000000 eV
 added-field ion interaction          0.000000 eV  (added to PSCEN)


 Broyden mixing:
  rms(total) = 0.47503E-02    rms(broyden)= 0.47478E-02
  rms(prec ) = 0.50091E-02
  weight for this iteration     100.00

 Free energy of the ion-electron system (eV)
  ---------------------------------------------------
  alpha Z        PSCENC =         0.00121808
  Ewald energy   TEWEN  =        13.23492206
  -Hartree energ DENC   =       -29.45082194
  -exchange      EXHF   =         0.00000000
  -V(xc)+E(xc)   XCENC  =         4.91981073
  PAW double counting   =        17.21554645      -17.25383063
  entropy T*S    EENTRO =        -0.00000000
  eigenvalues    EBANDS =       -19.32880943
  atomic energy  EATOM  =        25.06705842
  Solvation  Ediel_sol  =        -1.20194639
  ---------------------------------------------------
  free energy    TOTEN  =        -6.79685264 eV

  energy without entropy =       -6.79685264  energy(sigma->0) =       -6.79685264


--------------------------------------------------------------------------------------------------------




--------------------------------------- Iteration      5(   2)  ---------------------------------------


    POTLOK:  cpu time      2.6641: real time      2.6976
    SETDIJ:  cpu time      0.0872: real time      0.0880
     EDDAV:  cpu time      0.2535: real time      0.2569
       DOS:  cpu time      0.0006: real time      0.0006
    CHARGE:  cpu time      0.0535: real time      0.0547
    MIXING:  cpu time      0.0014: real time      0.0014
    --------------------------------------------
      LOOP:  cpu time      3.0603: real time      3.0992

 eigenvalue-minimisations  :    96
 total energy-change (2. order) :-0.2679191E-02  (-0.1385360E-04)
 number of electron       2.0000001 magnetization 
 augmentation part        0.0366117 magnetization 

 DIPCOR: dipole corrections for dipol
 direction  3 min pos     1,
 dipolmoment           0.000000      0.000000     -0.000000 electrons x Angstroem
 Tr[quadrupol]      -383.391210

 energy correction for charged system         0.000000 eV
 dipol+quadrupol energy correction           -0.000000 eV
 added-field ion interaction          0.000000 eV  (added to PSCEN)


 Broyden mixing:
  rms(total) = 0.23062E-02    rms(broyden)= 0.23061E-02
  rms(prec ) = 0.24219E-02
  weight for this iteration     100.00

 eigenvalues of (default mixing * dielectric matrix)
  average eigenvalue GAMMA=   1.9051
  1.9051

 Free energy of the ion-electron system (eV)
  ---------------------------------------------------
  alpha Z        PSCENC =         0.00121808
  Ewald energy   TEWEN  =        13.23492206
  -Hartree energ DENC   =       -29.47432893
  -exchange      EXHF   =         0.00000000
  -V(xc)+E(xc)   XCENC  =         4.92303011
  PAW double counting   =        17.41589988      -17.45448724
  entropy T*S    EENTRO =        -0.00000000
  eigenvalues    EBANDS =       -19.29999422
  atomic energy  EATOM  =        25.06705842
  Solvation  Ediel_sol  =        -1.21285001
  ---------------------------------------------------
  free energy    TOTEN  =        -6.79953183 eV

  energy without entropy =       -6.79953183  energy(sigma->0) =       -6.79953183


--------------------------------------------------------------------------------------------------------




--------------------------------------- Iteration      5(   3)  ---------------------------------------


    POTLOK:  cpu time      3.5672: real time      3.6116
    SETDIJ:  cpu time      0.0899: real time      0.0907
     EDDAV:  cpu time      0.1787: real time      0.1814
       DOS:  cpu time      0.0003: real time      0.0003
    CHARGE:  cpu time      0.0541: real time      0.0552
    MIXING:  cpu time      0.0015: real time      0.0015
    --------------------------------------------
      LOOP:  cpu time      3.8917: real time      3.9407

 eigenvalue-minimisations  :    64
 total energy-change (2. order) :-0.2241778E-02  (-0.7555962E-05)
 number of electron       2.0000001 magnetization 
 augmentation part        0.0365870 magnetization 

 DIPCOR: dipole corrections for dipol
 direction  3 min pos     1,
 dipolmoment           0.000000      0.000000     -0.000000 electrons x Angstroem
 Tr[quadrupol]      -383.391336

 energy correction for charged system         0.000000 eV
 dipol+quadrupol energy correction           -0.000000 eV
 added-field ion interaction          0.000000 eV  (added to PSCEN)


 Broyden mixing:
  rms(total) = 0.38144E-03    rms(broyden)= 0.38036E-03
  rms(prec ) = 0.39839E-03
  weight for this iteration     100.00

 eigenvalues of (default mixing * dielectric matrix)
  average eigenvalue GAMMA=   1.8779
  1.7035  2.0523

 Free energy of the ion-electron system (eV)
  ---------------------------------------------------
  alpha Z        PSCENC =         0.00121808
  Ewald energy   TEWEN  =        13.23492206
  -Hartree energ DENC   =       -29.49475694
  -exchange      EXHF   =         0.00000000
  -V(xc)+E(xc)   XCENC  =         4.92581189
  PAW double counting   =        17.62579161      -17.66468558
  entropy T*S    EENTRO =        -0.00000000
  eigenvalues    EBANDS =       -19.27675826
  atomic energy  EATOM  =        25.06705842
  Solvation  Ediel_sol  =        -1.22037489
  ---------------------------------------------------
  free energy    TOTEN  =        -6.80177361 eV

  energy without entropy =       -6.80177361  energy(sigma->0) =       -6.80177361


--------------------------------------------------------------------------------------------------------




--------------------------------------- Iteration      5(   4)  ---------------------------------------


    POTLOK:  cpu time      2.8628: real time      2.8972
    SETDIJ:  cpu time      0.0873: real time      0.0880
     EDDAV:  cpu time      0.3382: real time      0.3429
       DOS:  cpu time      0.0003: real time      0.0003
    CHARGE:  cpu time      0.0539: real time      0.0550
    MIXING:  cpu time      0.0016: real time      0.0016
    --------------------------------------------
      LOOP:  cpu time      3.3441: real time      3.3850

 eigenvalue-minimisations  :   128
 total energy-change (2. order) : 0.2655259E-03  (-0.6748613E-06)
 number of electron       2.0000001 magnetization 
 augmentation part        0.0365913 magnetization 

 DIPCOR: dipole corrections for dipol
 direction  3 min pos     1,
 dipolmoment           0.000000      0.000000     -0.000000 electrons x Angstroem
 Tr[quadrupol]      -383.391443

 energy correction for charged system         0.000000 eV
 dipol+quadrupol energy correction           -0.000000 eV
 added-field ion interaction          0.000000 eV  (added to PSCEN)


 Broyden mixing:
  rms(total) = 0.17552E-03    rms(broyden)= 0.17550E-03
  rms(prec ) = 0.19168E-03
  weight for this iteration     100.00

 eigenvalues of (default mixing * dielectric matrix)
  average eigenvalue GAMMA=   1.7126
  2.6614  0.9419  1.5346

 Free energy of the ion-electron system (eV)
  ---------------------------------------------------
  alpha Z        PSCENC =         0.00121808
  Ewald energy   TEWEN  =        13.23492206
  -Hartree energ DENC   =       -29.49470423
  -exchange      EXHF   =         0.00000000
  -V(xc)+E(xc)   XCENC  =         4.92575792
  PAW double counting   =        17.66406077      -17.70299063
  entropy T*S    EENTRO =        -0.00000000
  eigenvalues    EBANDS =       -19.28036372
  atomic energy  EATOM  =        25.06705842
  Solvation  Ediel_sol  =        -1.21646676
  ---------------------------------------------------
  free energy    TOTEN  =        -6.80150808 eV

  energy without entropy =       -6.80150808  energy(sigma->0) =       -6.80150808


--------------------------------------------------------------------------------------------------------




--------------------------------------- Iteration      5(   5)  ---------------------------------------


    POTLOK:  cpu time      2.5386: real time      2.5702
    SETDIJ:  cpu time      0.0873: real time      0.0880
     EDDAV:  cpu time      0.3400: real time      0.3449
       DOS:  cpu time      0.0003: real time      0.0003
    CHARGE:  cpu time      0.0531: real time      0.0542
    MIXING:  cpu time      0.0025: real time      0.0025
    --------------------------------------------
      LOOP:  cpu time      3.0217: real time      3.0602

 eigenvalue-minimisations  :   128
 total energy-change (2. order) :-0.1704784E-03  (-0.6078410E-07)
 number of electron       2.0000001 magnetization 
 augmentation part        0.0365896 magnetization 

 DIPCOR: dipole corrections for dipol
 direction  3 min pos     1,
 dipolmoment           0.000000      0.000000     -0.000000 electrons x Angstroem
 Tr[quadrupol]      -383.391520

 energy correction for charged system         0.000000 eV
 dipol+quadrupol energy correction           -0.000000 eV
 added-field ion interaction          0.000000 eV  (added to PSCEN)


 Broyden mixing:
  rms(total) = 0.48117E-04    rms(broyden)= 0.48087E-04
  rms(prec ) = 0.62701E-04
  weight for this iteration     100.00

 eigenvalues of (default mixing * dielectric matrix)
  average eigenvalue GAMMA=   1.8704
  2.9154  2.2556  1.0679  1.2425

 Free energy of the ion-electron system (eV)
  ---------------------------------------------------
  alpha Z        PSCENC =         0.00121808
  Ewald energy   TEWEN  =        13.23492206
  -Hartree energ DENC   =       -29.49638530
  -exchange      EXHF   =         0.00000000
  -V(xc)+E(xc)   XCENC  =         4.92597075
  PAW double counting   =        17.68431834      -17.72327337
  entropy T*S    EENTRO =        -0.00000000
  eigenvalues    EBANDS =       -19.27884326
  atomic energy  EATOM  =        25.06705842
  Solvation  Ediel_sol  =        -1.21666430
  ---------------------------------------------------
  free energy    TOTEN  =        -6.80167856 eV

  energy without entropy =       -6.80167856  energy(sigma->0) =       -6.80167856


--------------------------------------------------------------------------------------------------------




--------------------------------------- Iteration      5(   6)  ---------------------------------------


    POTLOK:  cpu time      2.4826: real time      2.5135
    SETDIJ:  cpu time      0.0872: real time      0.0879
     EDDAV:  cpu time      0.3431: real time      0.3480
       DOS:  cpu time      0.0003: real time      0.0003
    CHARGE:  cpu time      0.0538: real time      0.0549
    MIXING:  cpu time      0.0017: real time      0.0017
    --------------------------------------------
      LOOP:  cpu time      2.9687: real time      3.0064

 eigenvalue-minimisations  :   128
 total energy-change (2. order) : 0.1879017E-04  (-0.1424570E-07)
 number of electron       2.0000001 magnetization 
 augmentation part        0.0365896 magnetization 

 DIPCOR: dipole corrections for dipol
 direction  3 min pos     1,
 dipolmoment           0.000000      0.000000     -0.000000 electrons x Angstroem
 Tr[quadrupol]      -383.391669

 energy correction for charged system         0.000000 eV
 dipol+quadrupol energy correction           -0.000000 eV
 added-field ion interaction          0.000000 eV  (added to PSCEN)


 Broyden mixing:
  rms(total) = 0.20134E-04    rms(broyden)= 0.20128E-04
  rms(prec ) = 0.29938E-04
  weight for this iteration     100.00

 eigenvalues of (default mixing * dielectric matrix)
  average eigenvalue GAMMA=   1.9671
  3.6255  2.5155  0.9882  1.5251  1.1813

 Free energy of the ion-electron system (eV)
  ---------------------------------------------------
  alpha Z        PSCENC =         0.00121808
  Ewald energy   TEWEN  =        13.23492206
  -Hartree energ DENC   =       -29.49638452
  -exchange      EXHF   =         0.00000000
  -V(xc)+E(xc)   XCENC  =         4.92595249
  PAW double counting   =        17.68063347      -17.71958032
  entropy T*S    EENTRO =        -0.00000000
  eigenvalues    EBANDS =       -19.27936064
  atomic energy  EATOM  =        25.06705842
  Solvation  Ediel_sol  =        -1.21611882
  ---------------------------------------------------
  free energy    TOTEN  =        -6.80165977 eV

  energy without entropy =       -6.80165977  energy(sigma->0) =       -6.80165977


--------------------------------------------------------------------------------------------------------




--------------------------------------- Iteration      5(   7)  ---------------------------------------


    POTLOK:  cpu time      2.3687: real time      2.3977
    SETDIJ:  cpu time      0.0874: real time      0.0881
     EDDAV:  cpu time      0.3359: real time      0.3406
       DOS:  cpu time      0.0004: real time      0.0004
    CHARGE:  cpu time      0.0535: real time      0.0546
    MIXING:  cpu time      0.0025: real time      0.0025
    --------------------------------------------
      LOOP:  cpu time      2.8483: real time      2.8839

 eigenvalue-minimisations  :   128
 total energy-change (2. order) :-0.2102441E-04  (-0.6301555E-08)
 number of electron       2.0000001 magnetization 
 augmentation part        0.0365892 magnetization 

 DIPCOR: dipole corrections for dipol
 direction  3 min pos     1,
 dipolmoment           0.000000      0.000000     -0.000000 electrons x Angstroem
 Tr[quadrupol]      -383.391821

 energy correction for charged system         0.000000 eV
 dipol+quadrupol energy correction           -0.000000 eV
 added-field ion interaction          0.000000 eV  (added to PSCEN)


 Broyden mixing:
  rms(total) = 0.78840E-05    rms(broyden)= 0.78610E-05
  rms(prec ) = 0.16497E-04
  weight for this iteration     100.00

 eigenvalues of (default mixing * dielectric matrix)
  average eigenvalue GAMMA=   2.1983
  4.3987  2.8706  2.4907  0.9683  1.0551  1.4064

 Free energy of the ion-electron system (eV)
  ---------------------------------------------------
  alpha Z        PSCENC =         0.00121808
  Ewald energy   TEWEN  =        13.23492206
  -Hartree energ DENC   =       -29.49667812
  -exchange      EXHF   =         0.00000000
  -V(xc)+E(xc)   XCENC  =         4.92598337
  PAW double counting   =        17.67970867      -17.71865438
  entropy T*S    EENTRO =        -0.00000000
  eigenvalues    EBANDS =       -19.27923526
  atomic energy  EATOM  =        25.06705842
  Solvation  Ediel_sol  =        -1.21600364
  ---------------------------------------------------
  free energy    TOTEN  =        -6.80168080 eV

  energy without entropy =       -6.80168080  energy(sigma->0) =       -6.80168080


--------------------------------------------------------------------------------------------------------




--------------------------------------- Iteration      5(   8)  ---------------------------------------


    POTLOK:  cpu time      2.2000: real time      2.2282
    SETDIJ:  cpu time      0.0875: real time      0.0883
     EDDAV:  cpu time      0.1776: real time      0.1802
       DOS:  cpu time      0.0004: real time      0.0004
    CHARGE:  cpu time      0.0538: real time      0.0549
    MIXING:  cpu time      0.0019: real time      0.0019
    --------------------------------------------
      LOOP:  cpu time      2.5212: real time      2.5539

 eigenvalue-minimisations  :    64
 total energy-change (2. order) :-0.5199626E-05  (-0.5824170E-08)
 number of electron       2.0000001 magnetization 
 augmentation part        0.0365893 magnetization 

 DIPCOR: dipole corrections for dipol
 direction  3 min pos     1,
 dipolmoment           0.000000      0.000000     -0.000000 electrons x Angstroem
 Tr[quadrupol]      -383.392123

 energy correction for charged system         0.000000 eV
 dipol+quadrupol energy correction           -0.000000 eV
 added-field ion interaction          0.000000 eV  (added to PSCEN)


 Broyden mixing:
  rms(total) = 0.69423E-05    rms(broyden)= 0.69421E-05
  rms(prec ) = 0.11837E-04
  weight for this iteration     100.00

 eigenvalues of (default mixing * dielectric matrix)
  average eigenvalue GAMMA=   2.3642
  5.2202  3.5605  2.4514  0.9542  1.0151  1.3589  1.9893

 Free energy of the ion-electron system (eV)
  ---------------------------------------------------
  alpha Z        PSCENC =         0.00121808
  Ewald energy   TEWEN  =        13.23492206
  -Hartree energ DENC   =       -29.49699423
  -exchange      EXHF   =         0.00000000
  -V(xc)+E(xc)   XCENC  =         4.92601681
  PAW double counting   =        17.68039637      -17.71934410
  entropy T*S    EENTRO =        -0.00000000
  eigenvalues    EBANDS =       -19.27917045
  atomic energy  EATOM  =        25.06705842
  Solvation  Ediel_sol  =        -1.21578896
  ---------------------------------------------------
  free energy    TOTEN  =        -6.80168600 eV

  energy without entropy =       -6.80168600  energy(sigma->0) =       -6.80168600


--------------------------------------------------------------------------------------------------------




--------------------------------------- Iteration      5(   9)  ---------------------------------------


    POTLOK:  cpu time      2.1738: real time      2.2028
    SETDIJ:  cpu time      0.0877: real time      0.0885
     EDDAV:  cpu time      0.1784: real time      0.1814
       DOS:  cpu time      0.0004: real time      0.0004
    CHARGE:  cpu time      0.0536: real time      0.0547
    MIXING:  cpu time      0.0020: real time      0.0020
    --------------------------------------------
      LOOP:  cpu time      2.4958: real time      2.5297

 eigenvalue-minimisations  :    64
 total energy-change (2. order) : 0.1186724E-04  (-0.1993172E-08)
 number of electron       2.0000001 magnetization 
 augmentation part        0.0365894 magnetization 

 DIPCOR: dipole corrections for dipol
 direction  3 min pos     1,
 dipolmoment           0.000000      0.000000     -0.000000 electrons x Angstroem
 Tr[quadrupol]      -383.392445

 energy correction for charged system         0.000000 eV
 dipol+quadrupol energy correction           -0.000000 eV
 added-field ion interaction          0.000000 eV  (added to PSCEN)


 Broyden mixing:
  rms(total) = 0.71025E-05    rms(broyden)= 0.71005E-05
  rms(prec ) = 0.10204E-04
  weight for this iteration     100.00

 eigenvalues of (default mixing * dielectric matrix)
  average eigenvalue GAMMA=   2.4660
  6.0749  3.7865  2.8140  2.4203  1.4532  0.9702  1.0106  1.1986

 Free energy of the ion-electron system (eV)
  ---------------------------------------------------
  alpha Z        PSCENC =         0.00121808
  Ewald energy   TEWEN  =        13.23492206
  -Hartree energ DENC   =       -29.49694395
  -exchange      EXHF   =         0.00000000
  -V(xc)+E(xc)   XCENC  =         4.92600305
  PAW double counting   =        17.67988562      -17.71883212
  entropy T*S    EENTRO =        -0.00000000
  eigenvalues    EBANDS =       -19.27931684
  atomic energy  EATOM  =        25.06705842
  Solvation  Ediel_sol  =        -1.21566847
  ---------------------------------------------------
  free energy    TOTEN  =        -6.80167413 eV

  energy without entropy =       -6.80167413  energy(sigma->0) =       -6.80167413


--------------------------------------------------------------------------------------------------------




--------------------------------------- Iteration      5(  10)  ---------------------------------------


    POTLOK:  cpu time      1.9331: real time      1.9564
    SETDIJ:  cpu time      0.0870: real time      0.0877
     EDDAV:  cpu time      0.3398: real time      0.3444
       DOS:  cpu time      0.0004: real time      0.0004
    CHARGE:  cpu time      0.0533: real time      0.0544
    MIXING:  cpu time      0.0020: real time      0.0021
    --------------------------------------------
      LOOP:  cpu time      2.4155: real time      2.4454

 eigenvalue-minimisations  :   128
 total energy-change (2. order) :-0.1298166E-04  (-0.1123972E-08)
 number of electron       2.0000001 magnetization 
 augmentation part        0.0365892 magnetization 

 DIPCOR: dipole corrections for dipol
 direction  3 min pos     1,
 dipolmoment           0.000000      0.000000     -0.000000 electrons x Angstroem
 Tr[quadrupol]      -383.392792

 energy correction for charged system         0.000000 eV
 dipol+quadrupol energy correction           -0.000000 eV
 added-field ion interaction          0.000000 eV  (added to PSCEN)


 Broyden mixing:
  rms(total) = 0.45939E-05    rms(broyden)= 0.45857E-05
  rms(prec ) = 0.72068E-05
  weight for this iteration     100.00

 eigenvalues of (default mixing * dielectric matrix)
  average eigenvalue GAMMA=   2.7535
  7.7323  4.3300  3.4589  2.5127  2.3247  1.4090  0.9876  1.0132  1.0132

 Free energy of the ion-electron system (eV)
  ---------------------------------------------------
  alpha Z        PSCENC =         0.00121808
  Ewald energy   TEWEN  =        13.23492206
  -Hartree energ DENC   =       -29.49701147
  -exchange      EXHF   =         0.00000000
  -V(xc)+E(xc)   XCENC  =         4.92600712
  PAW double counting   =        17.68022886      -17.71917552
  entropy T*S    EENTRO =        -0.00000000
  eigenvalues    EBANDS =       -19.27921731
  atomic energy  EATOM  =        25.06705842
  Solvation  Ediel_sol  =        -1.21571736
  ---------------------------------------------------
  free energy    TOTEN  =        -6.80168711 eV

  energy without entropy =       -6.80168711  energy(sigma->0) =       -6.80168711


--------------------------------------------------------------------------------------------------------




--------------------------------------- Iteration      5(  11)  ---------------------------------------


    POTLOK:  cpu time      2.2528: real time      2.2838
    SETDIJ:  cpu time      0.0866: real time      0.0873
     EDDAV:  cpu time      0.3485: real time      0.3534
       DOS:  cpu time      0.0003: real time      0.0003
    CHARGE:  cpu time      0.0533: real time      0.0544
    MIXING:  cpu time      0.0023: real time      0.0023
    --------------------------------------------
      LOOP:  cpu time      2.7438: real time      2.7816

 eigenvalue-minimisations  :   128
 total energy-change (2. order) : 0.2674426E-05  (-0.5176020E-09)
 number of electron       2.0000001 magnetization 
 augmentation part        0.0365893 magnetization 

 DIPCOR: dipole corrections for dipol
 direction  3 min pos     1,
 dipolmoment           0.000000      0.000000     -0.000000 electrons x Angstroem
 Tr[quadrupol]      -383.393363

 energy correction for charged system         0.000000 eV
 dipol+quadrupol energy correction           -0.000000 eV
 added-field ion interaction          0.000000 eV  (added to PSCEN)


 Broyden mixing:
  rms(total) = 0.17207E-05    rms(broyden)= 0.17200E-05
  rms(prec ) = 0.39763E-05
  weight for this iteration     100.00

 eigenvalues of (default mixing * dielectric matrix)
  average eigenvalue GAMMA=   2.9472
  9.1420  5.1885  3.4388  3.0563  2.4503  1.8081  1.3974  0.9953  0.9953  1.0005

 Free energy of the ion-electron system (eV)
  ---------------------------------------------------
  alpha Z        PSCENC =         0.00121808
  Ewald energy   TEWEN  =        13.23492206
  -Hartree energ DENC   =       -29.49703584
  -exchange      EXHF   =         0.00000000
  -V(xc)+E(xc)   XCENC  =         4.92600549
  PAW double counting   =        17.68009333      -17.71904014
  entropy T*S    EENTRO =        -0.00000000
  eigenvalues    EBANDS =       -19.27926210
  atomic energy  EATOM  =        25.06705842
  Solvation  Ediel_sol  =        -1.21564375
  ---------------------------------------------------
  free energy    TOTEN  =        -6.80168444 eV

  energy without entropy =       -6.80168444  energy(sigma->0) =       -6.80168444


--------------------------------------------------------------------------------------------------------




--------------------------------------- Iteration      5(  12)  ---------------------------------------


    POTLOK:  cpu time      1.9691: real time      1.9936
    SETDIJ:  cpu time      0.0872: real time      0.0879
     EDDAV:  cpu time      0.3450: real time      0.3496
       DOS:  cpu time      0.0003: real time      0.0003
    CHARGE:  cpu time      0.0538: real time      0.0550
    MIXING:  cpu time      0.0022: real time      0.0022
    --------------------------------------------
      LOOP:  cpu time      2.4575: real time      2.4886

 eigenvalue-minimisations  :   128
 total energy-change (2. order) : 0.3883025E-05  (-0.2184990E-09)
 number of electron       2.0000001 magnetization 
 augmentation part        0.0365893 magnetization 

 DIPCOR: dipole corrections for dipol
 direction  3 min pos     1,
 dipolmoment           0.000000      0.000000     -0.000000 electrons x Angstroem
 Tr[quadrupol]      -383.393765

 energy correction for charged system         0.000000 eV
 dipol+quadrupol energy correction           -0.000000 eV
 added-field ion interaction          0.000000 eV  (added to PSCEN)


 Broyden mixing:
  rms(total) = 0.29054E-05    rms(broyden)= 0.29032E-05
  rms(prec ) = 0.38704E-05
  weight for this iteration     100.00

 eigenvalues of (default mixing * dielectric matrix)
  average eigenvalue GAMMA=   3.1833
 11.5362  5.8092  4.0383  3.0874  2.6401  2.4162  1.4142  0.9793  0.9793  1.0136
  1.1028

 Free energy of the ion-electron system (eV)
  ---------------------------------------------------
  alpha Z        PSCENC =         0.00121808
  Ewald energy   TEWEN  =        13.23492206
  -Hartree energ DENC   =       -29.49703770
  -exchange      EXHF   =         0.00000000
  -V(xc)+E(xc)   XCENC  =         4.92600485
  PAW double counting   =        17.67998720      -17.71893403
  entropy T*S    EENTRO =        -0.00000000
  eigenvalues    EBANDS =       -19.27928683
  atomic energy  EATOM  =        25.06705842
  Solvation  Ediel_sol  =        -1.21561261
  ---------------------------------------------------
  free energy    TOTEN  =        -6.80168055 eV

  energy without entropy =       -6.80168055  energy(sigma->0) =       -6.80168055


--------------------------------------------------------------------------------------------------------




--------------------------------------- Iteration      5(  13)  ---------------------------------------


    POTLOK:  cpu time      2.9155: real time      2.9469
    SETDIJ:  cpu time      0.0876: real time      0.0883
     EDDAV:  cpu time      0.3403: real time      0.3451
       DOS:  cpu time      0.0003: real time      0.0003
    CHARGE:  cpu time      0.1051: real time      0.1065
    MIXING:  cpu time      0.0222: real time      0.0223
    --------------------------------------------
      LOOP:  cpu time      3.4711: real time      3.5095

 eigenvalue-minimisations  :   128
 total energy-change (2. order) :-0.3348983E-05  (-0.2092300E-09)
 number of electron       2.0000001 magnetization 
 augmentation part        0.0365892 magnetization 

 DIPCOR: dipole corrections for dipol
 direction  3 min pos     1,
 dipolmoment           0.000000      0.000000     -0.000000 electrons x Angstroem
 Tr[quadrupol]      -383.394160

 energy correction for charged system         0.000000 eV
 dipol+quadrupol energy correction           -0.000000 eV
 added-field ion interaction          0.000000 eV  (added to PSCEN)


 Broyden mixing:
  rms(total) = 0.10323E-05    rms(broyden)= 0.10286E-05
  rms(prec ) = 0.17998E-05
  weight for this iteration     100.00

 eigenvalues of (default mixing * dielectric matrix)
  average eigenvalue GAMMA=   3.7183
 16.3871  7.0631  4.6241  3.5759  2.7210  2.4921  2.3538  1.4095  1.0163  1.0163
  0.9919  0.9683

 Free energy of the ion-electron system (eV)
  ---------------------------------------------------
  alpha Z        PSCENC =         0.00121808
  Ewald energy   TEWEN  =        13.23492206
  -Hartree energ DENC   =       -29.49705609
  -exchange      EXHF   =         0.00000000
  -V(xc)+E(xc)   XCENC  =         4.92600633
  PAW double counting   =        17.68010496      -17.71905163
  entropy T*S    EENTRO =        -0.00000000
  eigenvalues    EBANDS =       -19.27925540
  atomic energy  EATOM  =        25.06705842
  Solvation  Ediel_sol  =        -1.21563065
  ---------------------------------------------------
  free energy    TOTEN  =        -6.80168390 eV

  energy without entropy =       -6.80168390  energy(sigma->0) =       -6.80168390


--------------------------------------------------------------------------------------------------------




--------------------------------------- Iteration      5(  14)  ---------------------------------------


    POTLOK:  cpu time      2.4740: real time      2.5000
    SETDIJ:  cpu time      0.0883: real time      0.0890
     EDDAV:  cpu time      0.2411: real time      0.2445
       DOS:  cpu time      0.0003: real time      0.0003
    --------------------------------------------
      LOOP:  cpu time      2.8036: real time      2.8340

 eigenvalue-minimisations  :    64
 total energy-change (2. order) : 0.2128094E-06  (-0.2847145E-10)
 number of electron       2.0000001 magnetization 
 augmentation part        0.0365892 magnetization 

 DIPCOR: dipole corrections for dipol
 direction  3 min pos     1,
 dipolmoment           0.000000      0.000000     -0.000000 electrons x Angstroem
 Tr[quadrupol]      -383.394360

 energy correction for charged system         0.000000 eV
 dipol+quadrupol energy correction           -0.000000 eV
 added-field ion interaction          0.000000 eV  (added to PSCEN)


 Free energy of the ion-electron system (eV)
  ---------------------------------------------------
  alpha Z        PSCENC =         0.00121808
  Ewald energy   TEWEN  =        13.23492206
  -Hartree energ DENC   =       -29.49705999
  -exchange      EXHF   =         0.00000000
  -V(xc)+E(xc)   XCENC  =         4.92600590
  PAW double counting   =        17.68010062      -17.71904742
  entropy T*S    EENTRO =        -0.00000000
  eigenvalues    EBANDS =       -19.27926007
  atomic energy  EATOM  =        25.06705842
  Solvation  Ediel_sol  =        -1.21562130
  ---------------------------------------------------
  free energy    TOTEN  =        -6.80168369 eV

  energy without entropy =       -6.80168369  energy(sigma->0) =       -6.80168369


--------------------------------------------------------------------------------------------------------




 average (electrostatic) potential at core
  the test charge radii are     0.5201
  (the norm of the test charge is              1.0001)
       1 -41.4180       2 -41.4180



 E-fermi :  -9.1546     XC(G=0):  -0.0692     alpha+bet : -0.0069

 Fermi energy:        -9.1546245347

 k-point     1 :       0.0000    0.0000    0.0000
  band No.  band energies     occupation 
      1      -9.6396      2.00000
      2      -0.0533      0.00000
      3       0.0533      0.00000
      4       0.2451      0.00000
      5       0.3066      0.00000
      6       0.3066      0.00000
      7       0.3551      0.00000
      8       0.3644      0.00000
      9       0.4244      0.00000
     10       0.5908      0.00000
     11       0.5908      0.00000
     12       0.6424      0.00000
     13       0.7221      0.00000
     14       0.7291      0.00000
     15       0.7291      0.00000
     16       0.7337      0.00000
     17       0.7360      0.00000
     18       0.7410      0.00000
     19       0.7410      0.00000
     20       0.7452      0.00000
     21       0.8432      0.00000
     22       1.0033      0.00000
     23       1.0033      0.00000
     24       1.0760      0.00000
     25       1.0964      0.00000
     26       1.0964      0.00000
     27       1.1060      0.00000
     28       1.1142      0.00000
     29       1.1887      0.00000
     30       1.3492      0.00000
     31       1.3492      0.00000
     32       1.4619      0.00000


--------------------------------------------------------------------------------------------------------


 soft charge-density along one line, spin component           1
         0         1         2         3         4         5         6         7         8         9
 total charge-density along one line

 pseudopotential strength for first ion, spin component:           1
 -2.344  -4.039  -0.000  -0.000  -0.002
 -4.039  -6.873  -0.000  -0.000  -0.005
 -0.000  -0.000  -0.347  -0.000  -0.000
 -0.000  -0.000  -0.000  -0.347  -0.000
 -0.002  -0.005  -0.000  -0.000  -0.347
 total augmentation occupancy for first ion, spin component:           1
  2.907  -0.487   0.000   0.000   0.211
 -0.487   0.082  -0.000  -0.000  -0.035
  0.000  -0.000   0.000   0.000   0.000
  0.000  -0.000   0.000   0.000   0.000
  0.211  -0.035   0.000   0.000   0.015


------------------------ aborting loop because EDIFF is reached ----------------------------------------


    CHARGE:  cpu time      0.0534: real time      0.0541
    FORLOC:  cpu time      0.0025: real time      0.0025
    FORNL :  cpu time      0.2707: real time      0.2745
    STRESS:  cpu time      0.8591: real time      0.8710
    FORHAR:  cpu time      0.0165: real time      0.0166
    MIXING:  cpu time      0.0020: real time      0.0020
    OFIELD:  cpu time      0.0000: real time      0.0000

 ---------------------------------------------------------------------------------------------

         DFTD3 V3.0 Rev 1        
 Edisp (eV)   -0.00001

 E6    (eV) :    -0.0000
 E8    (eV) :    -0.0000
 % E8        :  4.86
    FORVDW:  cpu time      0.0080: real time      0.0081

  FORCE on cell =-STRESS in cart. coord.  units (eV):
  Direction    XX          YY          ZZ          XY          YZ          ZX
  --------------------------------------------------------------------------------------
  Alpha Z     0.00122     0.00122     0.00122
  Ewald      15.96135    -1.36322    -1.36322     0.00000    -0.00000    -0.00000
  Hartree    11.39539     9.05083     9.05083     0.00000    -0.00000    -0.00000
  E(xc)      -5.52807    -5.80497    -5.80497     0.00000    -0.00000    -0.00000
  Local     -30.38114   -17.33822   -17.33822    -0.00000    -0.00000     0.00000
  n-local    -5.39582    -4.92379    -4.92379    -0.00000    -0.00000     0.00000
  augment     0.28947     0.22661     0.22662     0.00000    -0.00000     0.00000
  Kinetic    12.66747    19.08147    19.08147    -0.00000    -0.00000     0.00000
  Fock        0.00000     0.00000     0.00000     0.00000     0.00000     0.00000
  vdW         0.00016    -0.00000    -0.00000     0.00000    -0.00000    -0.00000
  -------------------------------------------------------------------------------------
  Total      -0.98998    -1.07006    -1.07005     0.00000    -0.00000     0.00000
  in kB      -0.19827    -0.21430    -0.21430     0.00000    -0.00000     0.00000
  external pressure =       -0.21 kB  Pullay stress =        0.00 kB


 VOLUME and BASIS-vectors are now :
 -----------------------------------------------------------------------------
  energy-cutoff  :      400.00
  volume of cell :     8000.00
      direct lattice vectors                 reciprocal lattice vectors
    20.000000000  0.000000000  0.000000000     0.050000000  0.000000000  0.000000000
     0.000000000 20.000000000  0.000000000     0.000000000  0.050000000  0.000000000
     0.000000000  0.000000000 20.000000000     0.000000000  0.000000000  0.050000000

  length of vectors
    20.000000000 20.000000000 20.000000000     0.050000000  0.050000000  0.050000000


 FORCES acting on ions
    electron-ion (+dipol)            ewald-force                    non-local-force                 convergence-correction
 -----------------------------------------------------------------------------------------------
   0.177E+02 0.606E-09 -.425E-07   -.208E+02 -.413E-09 0.836E-07   0.330E+01 -.856E-08 -.948E-07   0.473E-06 0.130E-12 -.267E-13
   -.177E+02 -.606E-09 0.425E-07   0.208E+02 0.413E-09 -.836E-07   -.330E+01 0.835E-08 0.948E-07   -.473E-06 0.583E-13 -.172E-12
 -----------------------------------------------------------------------------------------------
   0.275E-11 -.207E-12 0.539E-12   0.000E+00 -.168E-18 0.317E-18   -.219E-09 -.208E-09 -.308E-10   -.218E-11 0.188E-12 -.199E-12


 POSITION                                       TOTAL-FORCE (eV/Angst)
 -----------------------------------------------------------------------------------
      9.58425     10.00000     10.00000        -0.016032     -0.000000     -0.000000
     10.41575     10.00000     10.00000         0.016032      0.000000      0.000000
 -----------------------------------------------------------------------------------
    total drift:                               -0.000000     -0.000000     -0.000000


--------------------------------------------------------------------------------------------------------



  FREE ENERGIE OF THE ION-ELECTRON SYSTEM (eV)
  ---------------------------------------------------
  free  energy   TOTEN  =        -6.80169596 eV

  energy  without entropy=       -6.80169596  energy(sigma->0) =       -6.80169596

 d Force = 0.1698355E-02[-0.170E-03, 0.357E-02]  d Energy = 0.1769961E-01-0.160E-01
 d Force =-0.2185235E+00[-0.221E+00,-0.216E+00]  d Ewald  =-0.2185059E+00-0.176E-04


--------------------------------------------------------------------------------------------------------


    POTLOK:  cpu time      1.8195: real time      1.8423


--------------------------------------------------------------------------------------------------------


 stress matrix after NEB project (eV)
     -0.98998      0.00000      0.00000
      0.00000     -1.07006     -0.00000
      0.00000     -0.00000     -1.07005
  FORCES: max atom, RMS     0.016032    0.016032
  FORCE total and by dimension    0.022673    0.016032
  Stress total and by dimension    1.808345    1.070060


--------------------------------------------------------------------------------------------------------


  
 reached required accuracy - stopping structural energy minimisation
     LOOP+:  cpu time     44.4948: real time     45.0529
    4ORBIT:  cpu time      0.0000: real time      0.0000

 total amount of memory used by VASP MPI-rank0    62014. kBytes
=======================================================================

   base      :      30000. kBytes
   nonlr-proj:         57. kBytes
   fftplans  :      18019. kBytes
   grid      :      13356. kBytes
   one-center:          1. kBytes
   wavefun   :        581. kBytes

  
  
 General timing and accounting informations for this job:
 ========================================================
  
                  Total CPU time used (sec):      287.675
                            User time (sec):      279.535
                          System time (sec):        8.139
                         Elapsed time (sec):      297.451
  
                   Maximum memory used (kb):      356716.
                   Average memory used (kb):          N/A
  
                          Minor page faults:       332887
                          Major page faults:            3
                 Voluntary context switches:        14617
