 H  O                                   
   1.0000000000000000     
    20.0000000000000000    0.0000000000000000    0.0000000000000000
     0.0000000000000000   20.0000000000000000    0.0000000000000000
     0.0000000000000000    0.0000000000000000   20.0000000000000000
  H/              O/            
               2               1
Direct
  0.4903820853294342  0.4811405496076350  0.5000000227344880
  0.5271445812774018  0.5486491046986353  0.5000000304048564
  0.4824733333931639  0.5292103456937129  0.4999999468606556

  0.00000000E+00  0.00000000E+00  0.00000000E+00
  0.00000000E+00  0.00000000E+00  0.00000000E+00
  0.00000000E+00  0.00000000E+00  0.00000000E+00
