 vasp.6.4.2 20Jul23 (build Dec  7 2023 18:18:25) complex                         
 executed on             LinuxGNU date 2026.03.14  19:52:26
 running  128 mpi-ranks, with    1 threads/rank, on    1 nodes
 distrk:  each k-point on  128 cores,    1 groups
 distr:  one band on NCORE=   4 cores,   32 groups


--------------------------------------------------------------------------------------------------------


 INCAR:
   SYSTEM = Bare Pt 111 (RPBE-D3)
   PREC = Normal
   ENCUT = 400
   EDIFF = 1E-6
   EDIFFG = -0.02
   GGA = RP
   IVDW = 11
   ISPIN = 1
   NELM = 200
   ISMEAR = 0
   SIGMA = 0.1
   ISYM = 0
   LREAL = Auto
   LDIPOL = .TRUE.
   IDIPOL = 3
   DIPOL = 0.5 0.5 0.5
   LWAVE = .FALSE.
   LCHARG = .FALSE.
   NCORE = 4
   LASPH = .TRUE.
   AMIN = 0.01
   ADDGRID = .TRUE.
   LSOL = .TRUE.
   EB_K = 80.0
   IBRION = 2
   NSW = 200
   ISIF = 2
   POTIM = 0.3

 POTCAR:    PAW_PBE H 15Jun2001                   
 POTCAR:    PAW_PBE O 08Apr2002                   
 POTCAR:    PAW_PBE H 15Jun2001                   
   VRHFIN =H: ultrasoft test                                                                        
   LEXCH  = PE                                                                                      
   EATOM  =    12.4884 eV,    0.9179 Ry                                                             
                                                                                                    
   TITEL  = PAW_PBE H 15Jun2001                                                                     
   LULTRA =        F    use ultrasoft PP ?                                                          
   IUNSCR =        0    unscreen: 0-lin 1-nonlin 2-no                                               
   RPACOR =    0.000    partial core radius                                                         
   POMASS =    1.000; ZVAL   =    1.000    mass and valenz                                          
   RCORE  =    1.100    outmost cutoff radius                                                       
   RWIGS  =    0.700; RWIGS  =    0.370    wigner-seitz radius (au A)                               
   ENMAX  =  250.000; ENMIN  =  200.000 eV                                                          
   RCLOC  =    0.701    cutoff for local pot                                                        
   LCOR   =        T    correct aug charges                                                         
   LPAW   =        T    paw PP                                                                      
   EAUG   =  400.000                                                                                
   RMAX   =    1.123    core radius for proj-oper                                                   
   RAUG   =    1.200    factor for augmentation sphere                                              
   RDEP   =    1.112    radius for radial grids                                                     
   RDEPT  =    0.926    core radius for aug-charge                                                  
                                                                                                    
   Atomic configuration                                                                             
    2 entries                                                                                       
     n  l   j            E        occ.                                                              
     1  0  0.50        -6.4927   1.0000                                                             
     2  1  0.50        -3.4015   0.0000                                                             
   Description                                                                                      
     l       E           TYP  RCUT    TYP  RCUT                                                     
     0     -6.4927494     23  1.100                                                                 
     0      6.8029130     23  1.100                                                                 
     1     -4.0817478     23  1.100                                                                 
  local pseudopotential read in
  atomic valenz-charges read in
  non local Contribution for L=           0  read in
    real space projection operators read in
  non local Contribution for L=           0  read in
    real space projection operators read in
  non local Contribution for L=           1  read in
    real space projection operators read in
    PAW grid and wavefunctions read in

   number of l-projection  operators is LMAX  =           3
   number of lm-projection operators is LMMAX =           5

 POTCAR:    PAW_PBE O 08Apr2002                   
   VRHFIN =O: s2p4                                                                                  
   LEXCH  = PE                                                                                      
   EATOM  =   432.3788 eV,   31.7789 Ry                                                             
                                                                                                    
   TITEL  = PAW_PBE O 08Apr2002                                                                     
   LULTRA =        F    use ultrasoft PP ?                                                          
   IUNSCR =        1    unscreen: 0-lin 1-nonlin 2-no                                               
   RPACOR =    1.200    partial core radius                                                         
   POMASS =   16.000; ZVAL   =    6.000    mass and valenz                                          
   RCORE  =    1.520    outmost cutoff radius                                                       
   RWIGS  =    1.550; RWIGS  =    0.820    wigner-seitz radius (au A)                               
   ENMAX  =  400.000; ENMIN  =  300.000 eV                                                          
   ICORE  =        2    local potential                                                             
   LCOR   =        T    correct aug charges                                                         
   LPAW   =        T    paw PP                                                                      
   EAUG   =  605.392                                                                                
   DEXC   =    0.000                                                                                
   RMAX   =    1.553    core radius for proj-oper                                                   
   RAUG   =    1.300    factor for augmentation sphere                                              
   RDEP   =    1.550    radius for radial grids                                                     
   RDEPT  =    1.329    core radius for aug-charge                                                  
                                                                                                    
   Atomic configuration                                                                             
    4 entries                                                                                       
     n  l   j            E        occ.                                                              
     1  0  0.50      -514.6923   2.0000                                                             
     2  0  0.50       -23.9615   2.0000                                                             
     2  1  0.50        -9.0305   4.0000                                                             
     3  2  1.50        -9.5241   0.0000                                                             
   Description                                                                                      
     l       E           TYP  RCUT    TYP  RCUT                                                     
     0    -23.9615318     23  1.200                                                                 
     0     -9.5240782     23  1.200                                                                 
     1     -9.0304911     23  1.520                                                                 
     1      8.1634956     23  1.520                                                                 
     2     -9.5240782      7  1.500                                                                 
  local pseudopotential read in
  partial core-charges read in
  partial kinetic energy density read in
  kinetic energy density of atom read in
  atomic valenz-charges read in
  non local Contribution for L=           0  read in
    real space projection operators read in
  non local Contribution for L=           0  read in
    real space projection operators read in
  non local Contribution for L=           1  read in
    real space projection operators read in
  non local Contribution for L=           1  read in
    real space projection operators read in
    PAW grid and wavefunctions read in

   number of l-projection  operators is LMAX  =           4
   number of lm-projection operators is LMMAX =           8

 -----------------------------------------------------------------------------
|                                                                             |
|               ----> ADVICE to this user running VASP <----                  |
|                                                                             |
|     You have a (more or less) 'small supercell' and for smaller cells       |
|     it is recommended to use the reciprocal-space projection scheme!        |
|     The real-space optimization is not efficient for small cells and it     |
|     is also less accurate ...                                               |
|     Therefore, set LREAL=.FALSE. in the INCAR file.                         |
|                                                                             |
 -----------------------------------------------------------------------------

 Optimization of the real space projectors (new method)

 maximal supplied QI-value         = 34.20
 optimisation between [QCUT,QGAM] = [  9.92, 20.18] = [ 27.55,114.04] Ry 
 Optimized for a Real-space Cutoff    1.26 Angstroem

   l    n(q)    QCUT    max X(q) W(low)/X(q) W(high)/X(q)  e(spline) 
   0      8     9.919    19.460    0.50E-03    0.23E-03    0.29E-06
   0      8     9.919    12.209    0.48E-03    0.23E-03    0.28E-06
   1      7     9.919     4.655    0.17E-03    0.75E-03    0.30E-06
 Optimization of the real space projectors (new method)

 maximal supplied QI-value         = 24.76
 optimisation between [QCUT,QGAM] = [ 10.15, 20.30] = [ 28.85,115.39] Ry 
 Optimized for a Real-space Cutoff    1.38 Angstroem

   l    n(q)    QCUT    max X(q) W(low)/X(q) W(high)/X(q)  e(spline) 
   0      8    10.150    20.381    0.22E-03    0.32E-03    0.29E-06
   0      8    10.150    15.268    0.23E-03    0.35E-03    0.30E-06
   1      8    10.150     5.964    0.46E-03    0.53E-03    0.21E-06
   1      8    10.150     5.382    0.38E-03    0.45E-03    0.19E-06
 -----------------------------------------------------------------------------
|                                                                             |
|               ----> ADVICE to this user running VASP <----                  |
|                                                                             |
|     You enforced a specific xc type in the INCAR file but a different       |
|     type was found in the POTCAR file.                                      |
|     I HOPE YOU KNOW WHAT YOU ARE DOING!                                     |
|                                                                             |
 -----------------------------------------------------------------------------

  PAW_PBE H 15Jun2001                   :
 energy of atom  1       EATOM=  -12.4884
 kinetic energy error for atom=    0.0098 (will be added to EATOM!!)
  PAW_PBE O 08Apr2002                   :
 energy of atom  2       EATOM= -432.3788
 kinetic energy error for atom=    0.1156 (will be added to EATOM!!)


 POSCAR:  H  O
  positions in direct lattice
  velocities in cartesian coordinates
 exchange correlation table for  LEXCH =        9
   RHO(1)=    0.500       N(1)  =     2000
   RHO(2)=  100.500       N(2)  =     4000

 VTST: version 4.1, (05/19/21)

 CHAIN: initializing optimizer
 
 OPT: Using VASP Conjugate-Gradient optimizer
 CHAIN: Read ICHAIN            0

 POSCAR:  H  O
  positions in direct lattice
  velocities in cartesian coordinates



--------------------------------------------------------------------------------------------------------


 ion  position               nearest neighbor table
   1  0.490  0.481  0.500-   3 0.97
   2  0.527  0.549  0.500-   3 0.97
   3  0.483  0.529  0.500-   1 0.97   2 0.97


IMPORTANT INFORMATION: All symmetrisations will be switched off!
NOSYMM: (Re-)initialisation of all symmetry stuff for point group C_1.


----------------------------------------------------------------------------------------

                                     Primitive cell                                     

  volume of cell :    8000.0000

  direct lattice vectors                    reciprocal lattice vectors
    20.000000000  0.000000000  0.000000000     0.050000000  0.000000000  0.000000000
     0.000000000 20.000000000  0.000000000     0.000000000  0.050000000  0.000000000
     0.000000000  0.000000000 20.000000000     0.000000000  0.000000000  0.050000000

  length of vectors
    20.000000000 20.000000000 20.000000000     0.050000000  0.050000000  0.050000000

  position of ions in fractional coordinates (direct lattice)
     0.490381924  0.481185678  0.500000022
     0.527116312  0.548625983  0.500000031
     0.482501764  0.529188340  0.499999947

  ion indices of the primitive-cell ions
   primitive index   ion index
                 1           1
                 2           2
                 3           3

----------------------------------------------------------------------------------------



 KPOINTS: Regular 4 x 4 x 1 mesh centered at Gamma

Automatic generation of k-mesh.
 Grid dimensions read from file:
 generate k-points for:    1    1    1

 Generating k-lattice:

  Cartesian coordinates                     Fractional coordinates (reciprocal lattice)
     0.050000000  0.000000000  0.000000000     1.000000000  0.000000000  0.000000000
     0.000000000  0.050000000  0.000000000     0.000000000  1.000000000  0.000000000
     0.000000000  0.000000000  0.050000000     0.000000000  0.000000000  1.000000000

  Length of vectors
     0.050000000  0.050000000  0.050000000

  Shift w.r.t. Gamma in fractional coordinates (k-lattice)
     0.000000000  0.000000000  0.000000000

 
 Subroutine IBZKPT returns following result:
 ===========================================
 
 Found      1 irreducible k-points:
 
 Following reciprocal coordinates:
            Coordinates               Weight
  0.000000  0.000000  0.000000      1.000000
 
 Following cartesian coordinates:
            Coordinates               Weight
  0.000000  0.000000  0.000000      1.000000
 


--------------------------------------------------------------------------------------------------------




 Dimension of arrays:
   k-points           NKPTS =      1   k-points in BZ     NKDIM =      1   number of bands    NBANDS=     32
   number of dos      NEDOS =    301   number of ions     NIONS =      3
   non local maximal  LDIM  =      4   non local SUM 2l+1 LMDIM =      8
   total plane-waves  NPLWV = 941192
   max r-space proj   IRMAX =   1346   max aug-charges    IRDMAX=  12409
   dimension x,y,z NGX =    98 NGY =   98 NGZ =   98
   dimension x,y,z NGXF=   196 NGYF=  196 NGZF=  196
   support grid    NGXF=   392 NGYF=  392 NGZF=  392
   ions per type =               2   1
   NGX,Y,Z   is equivalent  to a cutoff of   8.15,  8.15,  8.15 a.u.
   NGXF,Y,Z  is equivalent  to a cutoff of  16.29, 16.29, 16.29 a.u.

 SYSTEM =  Bare Pt 111 (RPBE-D3)                   
 POSCAR =   H  O                                   

 Startparameter for this run:
   NWRITE =      2    write-flag & timer
   PREC   = normal    normal or accurate (medium, high low for compatibility)
   ISTART =      0    job   : 0-new  1-cont  2-samecut
   ICHARG =      2    charge: 1-file 2-atom 10-const
   ISPIN  =      1    spin polarized calculation?
   LNONCOLLINEAR =      F non collinear calculations
   LSORBIT =      F    spin-orbit coupling
   INIWAV =      1    electr: 0-lowe 1-rand  2-diag
   LASPH  =      T    aspherical Exc in radial PAW
 Electronic Relaxation 1
   ENCUT  =  400.0 eV  29.40 Ry    5.42 a.u.  32.61 32.61 32.61*2*pi/ulx,y,z
   ENINI  =  400.0     initial cutoff
   ENAUG  =  605.4 eV  augmentation charge cutoff
   NELM   =    200;   NELMIN=  2; NELMDL=  0     # of ELM steps 
   EDIFF  = 0.1E-05   stopping-criterion for ELM
   LREAL  =      T    real-space projection
   NLSPLINE    = F    spline interpolate recip. space projectors
   LCOMPAT=      F    compatible to vasp.4.4
   GGA_COMPAT  = T    GGA compatible to vasp.4.4-vasp.4.6
   LMAXPAW     = -100 max onsite density
   LMAXMIX     =    2 max onsite mixed and CHGCAR
   VOSKOWN=      0    Vosko Wilk Nusair interpolation
   ROPT   =   -0.00050  -0.00050
 Ionic relaxation
   EDIFFG = -.2E-01   stopping-criterion for IOM
   NSW    =    200    number of steps for IOM
   NBLOCK =      1;   KBLOCK =    200    inner block; outer block 
   IBRION =      2    ionic relax: 0-MD 1-quasi-New 2-CG
   NFREE  =      1    steps in history (QN), initial steepest desc. (CG)
   ISIF   =      2    stress and relaxation
   IWAVPR =     11    prediction:  0-non 1-charg 2-wave 3-comb
   ISYM   =      0    0-nonsym 1-usesym 2-fastsym
   LCORR  =      T    Harris-Foulkes like correction to forces

   POTIM  = 0.3000    time-step for ionic-motion
   TEIN   =    0.0    initial temperature
   TEBEG  =    0.0;   TEEND  =   0.0 temperature during run
   SMASS  =  -3.00    Nose mass-parameter (am)
   estimated Nose-frequenzy (Omega)   =  0.10E-29 period in steps = 0.21E+47 mass=  -0.914E-26a.u.
   SCALEE = 1.0000    scale energy and forces
   NPACO  =    256;   APACO  = 10.0  distance and # of slots for P.C.
   PSTRESS=    0.0 pullay stress

  Mass of Ions in am
   POMASS =   1.00 16.00
  Ionic Valenz
   ZVAL   =   1.00  6.00
  Atomic Wigner-Seitz radii
   RWIGS  =  -1.00 -1.00
  virtual crystal weights 
   VCA    =   1.00  1.00
   NELECT =       8.0000    total number of electrons
   NUPDOWN=      -1.0000    fix difference up-down

 DOS related values:
   EMIN   =  10.00;   EMAX   =-10.00  energy-range for DOS
   EFERMI =   0.00;   METHOD = LEGACY      
   ISMEAR =     0;   SIGMA  =   0.10  broadening in eV -4-tet -1-fermi 0-gaus

 Electronic relaxation 2 (details)
   IALGO  =     38    algorithm
   LDIAG  =      T    sub-space diagonalisation (order eigenvalues)
   LSUBROT=      F    optimize rotation matrix (better conditioning)
   TURBO    =      0    0=normal 1=particle mesh
   IRESTART =      0    0=no restart 2=restart with 2 vectors
   NREBOOT  =      0    no. of reboots
   NMIN     =      0    reboot dimension
   EREF     =   0.00    reference energy to select bands
   IMIX   =      4    mixing-type and parameters
     AMIX     =   0.40;   BMIX     =  1.00
     AMIX_MAG =   1.60;   BMIX_MAG =  1.00
     AMIN     =   0.01
     WC   =   100.;   INIMIX=   1;  MIXPRE=   1;  MAXMIX= -45

 Intra band minimization:
   WEIMIN = 0.0010     energy-eigenvalue tresh-hold
   EBREAK =  0.78E-08  absolut break condition
   DEPER  =   0.30     relativ break condition  

   TIME   =   0.40     timestep for ELM

  volume/ion in A,a.u.               =    2666.67     17995.55
  Fermi-wavevector in a.u.,A,eV,Ry     =   0.163710  0.309367  0.364649  0.026801
  Thomas-Fermi vector in A             =   0.862763

 Write flags
   LWAVE        =      F    write WAVECAR
   LDOWNSAMPLE  =      F    k-point downsampling of WAVECAR
   LCHARG       =      F    write CHGCAR
   LVTOT        =      F    write LOCPOT, total local potential
   LVHAR        =      F    write LOCPOT, Hartree potential only
   LELF         =      F    write electronic localiz. function (ELF)
   LORBIT       =      0    0 simple, 1 ext, 2 COOP (PROOUT), +10 PAW based schemes


 Dipole corrections
   LMONO  =      F    monopole corrections only (constant potential shift)
   LDIPOL =      T    correct potential (dipole corrections)
   IDIPOL =      3    1-x, 2-y, 3-z, 4-all directions 
   EPSILON=  1.0000000 bulk dielectric constant

 Exchange correlation treatment:
   GGA     =    RP    GGA type
   LEXCH   =     9    internal setting for exchange type
   LIBXC   =     F    Libxc                    
   VOSKOWN =     0    Vosko Wilk Nusair interpolation
   LHFCALC =     F    Hartree Fock is set to
   LHFONE  =     F    Hartree Fock one center treatment
   AEXX    =    0.0000 exact exchange contribution

 Linear response parameters
   LEPSILON=     F    determine dielectric tensor
   LRPA    =     F    only Hartree local field effects (RPA)
   LNABLA  =     F    use nabla operator in PAW spheres
   LVEL    =     F    velocity operator in full k-point grid
   CSHIFT  =0.1000    complex shift for real part using Kramers Kronig
   OMEGAMAX=  -1.0    maximum frequency
   DEG_THRESHOLD= 0.2000000E-02 threshold for treating states as degnerate
   RTIME   =   -0.100 relaxation time in fs
  (WPLASMAI=    0.000 imaginary part of plasma frequency in eV, 0.658/RTIME)
   DFIELD  = 0.0000000 0.0000000 0.0000000 field for delta impulse in time

  Optional k-point grid parameters
   LKPOINTS_OPT  =     F    use optional k-point grid
   KPOINTS_OPT_MODE=     1    mode for optional k-point grid

 Orbital magnetization related:
   ORBITALMAG=     F  switch on orbital magnetization
   LCHIMAG   =     F  perturbation theory with respect to B field
   DQ        =  0.001000  dq finite difference perturbation B field
   LLRAUG    =     F  two centre corrections for induced B field
   LBONE     =     F  B-component reconstruction in AE one-centre
   LVGVCALC  =     T  calculate vGv susceptibility
   LVGVAPPL  =     F  apply vGv susceptibility instead of pGv for G=0

 Random number generation:
   RANDOM_GENERATOR = DEFAULT
   PCG_SEED         = not used
 Solvation model:
   LSOL    =     T         switch on solvation model
   EB_K    = 80.000000     relative permittivity of the bulk solvent
   SIGMA_K =  0.600000     width of the dielectric cavity
   NC_K    =  0.002500     cutoff charge density
   TAU     =  0.000525     cavity surface tension
   LAMBDA_D_K    =**********     Debye length in Angstroms
   LRHOB     =     F     write boundcharge  density
   LRHOION     =     F     write ioniccharge density



--------------------------------------------------------------------------------------------------------


 conjugate gradient relaxation of ions
 charge density and potential will be updated during run
 non-spin polarized calculation
 Variant of blocked Davidson
 Davidson routine will perform the subspace rotation
 perform sub-space diagonalisation
    after iterative eigenvector-optimisation
 modified Broyden-mixing scheme, WC =      100.0
 initial mixing is a Kerker type mixing with AMIX =  0.4000 and BMIX =      1.0000
 Hartree-type preconditioning will be used
 using additional bands           28
 real space projection scheme for non local part
 use partial core corrections
 calculate Harris-corrections to forces   (improved forces if not selfconsistent)
 use gradient corrections 
 use of overlap-Matrix (Vanderbilt PP)
 Gauss-broadening in eV      SIGMA  =   0.10


--------------------------------------------------------------------------------------------------------


  energy-cutoff  :      400.00
  volume of cell :     8000.00
      direct lattice vectors                 reciprocal lattice vectors
    20.000000000  0.000000000  0.000000000     0.050000000  0.000000000  0.000000000
     0.000000000 20.000000000  0.000000000     0.000000000  0.050000000  0.000000000
     0.000000000  0.000000000 20.000000000     0.000000000  0.000000000  0.050000000

  length of vectors
    20.000000000 20.000000000 20.000000000     0.050000000  0.050000000  0.050000000



 k-points in units of 2pi/SCALE and weight: Regular 4 x 4 x 1 mesh centered at Gamma
   0.00000000  0.00000000  0.00000000       1.000

 k-points in reciprocal lattice and weights: Regular 4 x 4 x 1 mesh centered at Gamma
   0.00000000  0.00000000  0.00000000       1.000

 position of ions in fractional coordinates (direct lattice) 
   0.49038192  0.48118568  0.50000002
   0.52711631  0.54862598  0.50000003
   0.48250176  0.52918834  0.49999995

 position of ions in cartesian coordinates  (Angst):
   9.80763849  9.62371355 10.00000044
  10.54232624 10.97251965 10.00000061
   9.65003528 10.58376679  9.99999894



--------------------------------------------------------------------------------------------------------


 k-point   1 :   0.0000 0.0000 0.0000  plane waves:  145165

 maximum and minimum number of plane-waves per node :     36308    36275

 maximum number of plane-waves:    145165
 maximum index in each direction: 
   IXMAX=   32   IYMAX=   32   IZMAX=   32
   IXMIN=  -32   IYMIN=  -32   IZMIN=  -32


 real space projection operators:
  total allocation   :        154.30 KBytes
  max/ min on nodes  :         39.50         36.65


 parallel 3D FFT for wavefunctions:
    minimum data exchange during FFTs selected (reduces bandwidth)
 parallel 3D FFT for charge:
    minimum data exchange during FFTs selected (reduces bandwidth)


 total amount of memory used by VASP MPI-rank0    62694. kBytes
=======================================================================

   base      :      30000. kBytes
   nonlr-proj:        114. kBytes
   fftplans  :      18019. kBytes
   grid      :      13977. kBytes
   one-center:          3. kBytes
   wavefun   :        581. kBytes

     INWAV:  cpu time      0.0000: real time      0.0000
 Broyden mixing: mesh for mixing (old mesh)
   NGX = 65   NGY = 65   NGZ = 65
  (NGX  =196   NGY  =196   NGZ  =196)
  gives a total of 274625 points

 initial charge density was supplied:
 charge density of overlapping atoms calculated
 number of electron       8.0000000 magnetization 
 keeping initial charge density in first step


--------------------------------------------------------------------------------------------------------


 Maximum index for non-local projection operator          315
 Maximum index for augmentation-charges            0 (set IRDMAX)


--------------------------------------------------------------------------------------------------------


 First call to EWALD:  gamma=   0.089
 Maximum number of real-space cells 3x 3x 3
 Maximum number of reciprocal cells 3x 3x 3

    FEWALD:  cpu time      0.0009: real time      0.0009


--------------------------------------- Ionic step        1  -------------------------------------------




--------------------------------------- Iteration      1(   1)  ---------------------------------------


    POTLOK:  cpu time      3.8584: real time      4.5633
    SETDIJ:  cpu time      0.0901: real time      0.0909
     EDDAV:  cpu time      0.2590: real time      0.2648
       DOS:  cpu time      0.0015: real time      0.0030
    --------------------------------------------
      LOOP:  cpu time      4.2090: real time      4.9220

 eigenvalue-minimisations  :    96
 total energy-change (2. order) : 0.5604225E+02  (-0.1418274E+03)
 number of electron       8.0000000 magnetization 
 augmentation part        8.0000000 magnetization 

 DIPCOR: dipole corrections for dipol
 direction  3 min pos     1,
 dipolmoment           0.000000      0.000000      0.000000 electrons x Angstroem
 Tr[quadrupol]     -1449.632901

 energy correction for charged system         0.000000 eV
 dipol+quadrupol energy correction           -0.000000 eV
 added-field ion interaction          0.000000 eV  (added to PSCEN)


 Free energy of the ion-electron system (eV)
  ---------------------------------------------------
  alpha Z        PSCENC =         0.02803141
  Ewald energy   TEWEN  =       121.63075842
  -Hartree energ DENC   =      -480.61224871
  -exchange      EXHF   =         0.00000000
  -V(xc)+E(xc)   XCENC  =        31.79095801
  PAW double counting   =       350.99800903     -352.54614913
  entropy T*S    EENTRO =        -0.00036706
  eigenvalues    EBANDS =       -70.91395142
  atomic energy  EATOM  =       457.26981990
  Solvation  Ediel_sol  =        -1.60260930
  ---------------------------------------------------
  free energy    TOTEN  =        56.04225114 eV

  energy without entropy =       56.04261821  energy(sigma->0) =       56.04243468


--------------------------------------------------------------------------------------------------------




--------------------------------------- Iteration      1(   2)  ---------------------------------------


     EDDAV:  cpu time      0.3509: real time      0.3547
       DOS:  cpu time      0.0003: real time      0.0002
    --------------------------------------------
      LOOP:  cpu time      0.3512: real time      0.3549

 eigenvalue-minimisations  :   128
 total energy-change (2. order) :-0.6896377E+02  (-0.6895758E+02)
 number of electron       8.0000000 magnetization 
 augmentation part        8.0000000 magnetization 

 DIPCOR: dipole corrections for dipol
 direction  3 min pos     1,
 dipolmoment           0.000000      0.000000      0.000000 electrons x Angstroem
 Tr[quadrupol]     -1449.632901

 energy correction for charged system         0.000000 eV
 dipol+quadrupol energy correction           -0.000000 eV
 added-field ion interaction          0.000000 eV  (added to PSCEN)


 Free energy of the ion-electron system (eV)
  ---------------------------------------------------
  alpha Z        PSCENC =         0.02803141
  Ewald energy   TEWEN  =       121.63075842
  -Hartree energ DENC   =      -480.61224871
  -exchange      EXHF   =         0.00000000
  -V(xc)+E(xc)   XCENC  =        31.79095801
  PAW double counting   =       350.99800903     -352.54614913
  entropy T*S    EENTRO =        -0.00000000
  eigenvalues    EBANDS =      -139.87809022
  atomic energy  EATOM  =       457.26981990
  Solvation  Ediel_sol  =        -1.60260930
  ---------------------------------------------------
  free energy    TOTEN  =       -12.92152059 eV

  energy without entropy =      -12.92152059  energy(sigma->0) =      -12.92152059


--------------------------------------------------------------------------------------------------------




--------------------------------------- Iteration      1(   3)  ---------------------------------------


     EDDAV:  cpu time      0.1764: real time      0.1787
       DOS:  cpu time      0.0003: real time      0.0003
    --------------------------------------------
      LOOP:  cpu time      0.1767: real time      0.1789

 eigenvalue-minimisations  :    64
 total energy-change (2. order) :-0.3198129E+01  (-0.3198129E+01)
 number of electron       8.0000000 magnetization 
 augmentation part        8.0000000 magnetization 

 DIPCOR: dipole corrections for dipol
 direction  3 min pos     1,
 dipolmoment           0.000000      0.000000      0.000000 electrons x Angstroem
 Tr[quadrupol]     -1449.632901

 energy correction for charged system         0.000000 eV
 dipol+quadrupol energy correction           -0.000000 eV
 added-field ion interaction          0.000000 eV  (added to PSCEN)


 Free energy of the ion-electron system (eV)
  ---------------------------------------------------
  alpha Z        PSCENC =         0.02803141
  Ewald energy   TEWEN  =       121.63075842
  -Hartree energ DENC   =      -480.61224871
  -exchange      EXHF   =         0.00000000
  -V(xc)+E(xc)   XCENC  =        31.79095801
  PAW double counting   =       350.99800903     -352.54614913
  entropy T*S    EENTRO =        -0.00000000
  eigenvalues    EBANDS =      -143.07621876
  atomic energy  EATOM  =       457.26981990
  Solvation  Ediel_sol  =        -1.60260930
  ---------------------------------------------------
  free energy    TOTEN  =       -16.11964913 eV

  energy without entropy =      -16.11964913  energy(sigma->0) =      -16.11964913


--------------------------------------------------------------------------------------------------------




--------------------------------------- Iteration      1(   4)  ---------------------------------------


     EDDAV:  cpu time      0.1752: real time      0.1772
       DOS:  cpu time      0.0025: real time      0.0026
    --------------------------------------------
      LOOP:  cpu time      0.1777: real time      0.1798

 eigenvalue-minimisations  :    64
 total energy-change (2. order) :-0.2112613E-01  (-0.2112613E-01)
 number of electron       8.0000000 magnetization 
 augmentation part        8.0000000 magnetization 

 DIPCOR: dipole corrections for dipol
 direction  3 min pos     1,
 dipolmoment           0.000000      0.000000      0.000000 electrons x Angstroem
 Tr[quadrupol]     -1449.632901

 energy correction for charged system         0.000000 eV
 dipol+quadrupol energy correction           -0.000000 eV
 added-field ion interaction          0.000000 eV  (added to PSCEN)


 Free energy of the ion-electron system (eV)
  ---------------------------------------------------
  alpha Z        PSCENC =         0.02803141
  Ewald energy   TEWEN  =       121.63075842
  -Hartree energ DENC   =      -480.61224871
  -exchange      EXHF   =         0.00000000
  -V(xc)+E(xc)   XCENC  =        31.79095801
  PAW double counting   =       350.99800903     -352.54614913
  entropy T*S    EENTRO =        -0.00000000
  eigenvalues    EBANDS =      -143.09734489
  atomic energy  EATOM  =       457.26981990
  Solvation  Ediel_sol  =        -1.60260930
  ---------------------------------------------------
  free energy    TOTEN  =       -16.14077526 eV

  energy without entropy =      -16.14077526  energy(sigma->0) =      -16.14077526


--------------------------------------------------------------------------------------------------------




--------------------------------------- Iteration      1(   5)  ---------------------------------------


     EDDAV:  cpu time      0.3426: real time      0.3465
       DOS:  cpu time      0.0003: real time      0.0003
    CHARGE:  cpu time      0.0705: real time      0.0728
    MIXING:  cpu time      0.0036: real time      0.0062
    --------------------------------------------
      LOOP:  cpu time      0.4170: real time      0.4258

 eigenvalue-minimisations  :   128
 total energy-change (2. order) :-0.2599172E-03  (-0.2599172E-03)
 number of electron       8.0000001 magnetization 
 augmentation part        0.8235252 magnetization 

 DIPCOR: dipole corrections for dipol
 direction  3 min pos     1,
 dipolmoment           0.000000      0.000000      0.000000 electrons x Angstroem
 Tr[quadrupol]     -1449.632901

 energy correction for charged system         0.000000 eV
 dipol+quadrupol energy correction           -0.000000 eV
 added-field ion interaction          0.000000 eV  (added to PSCEN)


 Broyden mixing:
  rms(total) = 0.77947E+00    rms(broyden)= 0.77736E+00
  rms(prec ) = 0.85363E+00
  weight for this iteration     100.00

 Free energy of the ion-electron system (eV)
  ---------------------------------------------------
  alpha Z        PSCENC =         0.02803141
  Ewald energy   TEWEN  =       121.63075842
  -Hartree energ DENC   =      -480.61224871
  -exchange      EXHF   =         0.00000000
  -V(xc)+E(xc)   XCENC  =        31.79095801
  PAW double counting   =       350.99800903     -352.54614913
  entropy T*S    EENTRO =        -0.00000000
  eigenvalues    EBANDS =      -143.09760480
  atomic energy  EATOM  =       457.26981990
  Solvation  Ediel_sol  =        -1.60260930
  ---------------------------------------------------
  free energy    TOTEN  =       -16.14103518 eV

  energy without entropy =      -16.14103518  energy(sigma->0) =      -16.14103518


--------------------------------------------------------------------------------------------------------




--------------------------------------- Iteration      1(   6)  ---------------------------------------


    POTLOK:  cpu time      3.5141: real time      3.5490
    SETDIJ:  cpu time      0.0892: real time      0.0899
     EDDAV:  cpu time      0.1778: real time      0.1804
       DOS:  cpu time      0.0003: real time      0.0003
    CHARGE:  cpu time      0.0662: real time      0.0670
    MIXING:  cpu time      0.0020: real time      0.0031
    --------------------------------------------
      LOOP:  cpu time      3.8496: real time      3.8897

 eigenvalue-minimisations  :    64
 total energy-change (2. order) : 0.1720658E+01  (-0.8405146E+00)
 number of electron       8.0000001 magnetization 
 augmentation part        0.6978333 magnetization 

 DIPCOR: dipole corrections for dipol
 direction  3 min pos     1,
 dipolmoment           0.000000      0.000000     -0.000000 electrons x Angstroem
 Tr[quadrupol]     -1449.641952

 energy correction for charged system         0.000000 eV
 dipol+quadrupol energy correction           -0.000000 eV
 added-field ion interaction         -0.000000 eV  (added to PSCEN)


 Broyden mixing:
  rms(total) = 0.32378E+00    rms(broyden)= 0.32331E+00
  rms(prec ) = 0.34097E+00
  weight for this iteration     100.00

 eigenvalues of (default mixing * dielectric matrix)
  average eigenvalue GAMMA=   0.9473
  0.9473

 Free energy of the ion-electron system (eV)
  ---------------------------------------------------
  alpha Z        PSCENC =         0.02803141
  Ewald energy   TEWEN  =       121.63075842
  -Hartree energ DENC   =      -504.27314222
  -exchange      EXHF   =         0.00000000
  -V(xc)+E(xc)   XCENC  =        33.10151836
  PAW double counting   =       450.93688869     -452.75887155
  entropy T*S    EENTRO =        -0.00000000
  eigenvalues    EBANDS =      -118.29866289
  atomic energy  EATOM  =       457.26981990
  Solvation  Ediel_sol  =        -2.05671739
  ---------------------------------------------------
  free energy    TOTEN  =       -14.42037728 eV

  energy without entropy =      -14.42037728  energy(sigma->0) =      -14.42037728


--------------------------------------------------------------------------------------------------------




--------------------------------------- Iteration      1(   7)  ---------------------------------------


    POTLOK:  cpu time      4.2244: real time      4.2645
    SETDIJ:  cpu time      0.0889: real time      0.0898
     EDDAV:  cpu time      0.3379: real time      0.3416
       DOS:  cpu time      0.0003: real time      0.0003
    CHARGE:  cpu time      0.0655: real time      0.0662
    MIXING:  cpu time      0.0017: real time      0.0018
    --------------------------------------------
      LOOP:  cpu time      4.7187: real time      4.7643

 eigenvalue-minimisations  :   128
 total energy-change (2. order) : 0.1830286E-01  (-0.8675322E-02)
 number of electron       8.0000001 magnetization 
 augmentation part        0.6951421 magnetization 

 DIPCOR: dipole corrections for dipol
 direction  3 min pos     1,
 dipolmoment           0.000000      0.000000      0.000000 electrons x Angstroem
 Tr[quadrupol]     -1449.639742

 energy correction for charged system         0.000000 eV
 dipol+quadrupol energy correction           -0.000000 eV
 added-field ion interaction          0.000000 eV  (added to PSCEN)


 Broyden mixing:
  rms(total) = 0.20279E+00    rms(broyden)= 0.20277E+00
  rms(prec ) = 0.21598E+00
  weight for this iteration     100.00

 eigenvalues of (default mixing * dielectric matrix)
  average eigenvalue GAMMA=   1.7310
  1.0411  2.4208

 Free energy of the ion-electron system (eV)
  ---------------------------------------------------
  alpha Z        PSCENC =         0.02803141
  Ewald energy   TEWEN  =       121.63075842
  -Hartree energ DENC   =      -508.29453761
  -exchange      EXHF   =         0.00000000
  -V(xc)+E(xc)   XCENC  =        33.31009604
  PAW double counting   =       498.41006684     -500.20943947
  entropy T*S    EENTRO =        -0.00000000
  eigenvalues    EBANDS =      -114.46533961
  atomic energy  EATOM  =       457.26981990
  Solvation  Ediel_sol  =        -2.08153034
  ---------------------------------------------------
  free energy    TOTEN  =       -14.40207442 eV

  energy without entropy =      -14.40207442  energy(sigma->0) =      -14.40207442


--------------------------------------------------------------------------------------------------------




--------------------------------------- Iteration      1(   8)  ---------------------------------------


    POTLOK:  cpu time      3.4978: real time      3.5325
    SETDIJ:  cpu time      0.0891: real time      0.0898
     EDDAV:  cpu time      0.2519: real time      0.2547
       DOS:  cpu time      0.0003: real time      0.0003
    CHARGE:  cpu time      0.0646: real time      0.0659
    MIXING:  cpu time      0.0017: real time      0.0017
    --------------------------------------------
      LOOP:  cpu time      3.9054: real time      3.9449

 eigenvalue-minimisations  :    96
 total energy-change (2. order) :-0.3397423E-01  (-0.1501987E-01)
 number of electron       8.0000001 magnetization 
 augmentation part        0.6973096 magnetization 

 DIPCOR: dipole corrections for dipol
 direction  3 min pos     1,
 dipolmoment           0.000000      0.000000     -0.000000 electrons x Angstroem
 Tr[quadrupol]     -1449.636248

 energy correction for charged system         0.000000 eV
 dipol+quadrupol energy correction           -0.000000 eV
 added-field ion interaction         -0.000000 eV  (added to PSCEN)


 Broyden mixing:
  rms(total) = 0.31240E-01    rms(broyden)= 0.31090E-01
  rms(prec ) = 0.44354E-01
  weight for this iteration     100.00

 eigenvalues of (default mixing * dielectric matrix)
  average eigenvalue GAMMA=   1.4792
  2.3752  1.0312  1.0312

 Free energy of the ion-electron system (eV)
  ---------------------------------------------------
  alpha Z        PSCENC =         0.02803141
  Ewald energy   TEWEN  =       121.63075842
  -Hartree energ DENC   =      -514.52886783
  -exchange      EXHF   =         0.00000000
  -V(xc)+E(xc)   XCENC  =        33.66011995
  PAW double counting   =       575.26131829     -577.03773948
  entropy T*S    EENTRO =        -0.00000000
  eigenvalues    EBANDS =      -108.25355727
  atomic energy  EATOM  =       457.26981990
  Solvation  Ediel_sol  =        -2.46593203
  ---------------------------------------------------
  free energy    TOTEN  =       -14.43604866 eV

  energy without entropy =      -14.43604866  energy(sigma->0) =      -14.43604866


--------------------------------------------------------------------------------------------------------




--------------------------------------- Iteration      1(   9)  ---------------------------------------


    POTLOK:  cpu time      3.4308: real time      3.4663
    SETDIJ:  cpu time      0.0884: real time      0.0893
     EDDAV:  cpu time      0.3390: real time      0.3428
       DOS:  cpu time      0.0006: real time      0.0006
    CHARGE:  cpu time      0.0646: real time      0.0658
    MIXING:  cpu time      0.0017: real time      0.0017
    --------------------------------------------
      LOOP:  cpu time      3.9252: real time      3.9664

 eigenvalue-minimisations  :   128
 total energy-change (2. order) :-0.5253349E-02  (-0.8594517E-03)
 number of electron       8.0000001 magnetization 
 augmentation part        0.6943052 magnetization 

 DIPCOR: dipole corrections for dipol
 direction  3 min pos     1,
 dipolmoment           0.000000      0.000000     -0.000000 electrons x Angstroem
 Tr[quadrupol]     -1449.637470

 energy correction for charged system         0.000000 eV
 dipol+quadrupol energy correction           -0.000000 eV
 added-field ion interaction         -0.000000 eV  (added to PSCEN)


 Broyden mixing:
  rms(total) = 0.21871E-01    rms(broyden)= 0.21846E-01
  rms(prec ) = 0.33263E-01
  weight for this iteration     100.00

 eigenvalues of (default mixing * dielectric matrix)
  average eigenvalue GAMMA=   1.9645
  0.9945  0.9945  3.3721  2.4970

 Free energy of the ion-electron system (eV)
  ---------------------------------------------------
  alpha Z        PSCENC =         0.02803141
  Ewald energy   TEWEN  =       121.63075842
  -Hartree energ DENC   =      -515.45925769
  -exchange      EXHF   =         0.00000000
  -V(xc)+E(xc)   XCENC  =        33.69503396
  PAW double counting   =       572.94256408     -574.72703478
  entropy T*S    EENTRO =        -0.00000000
  eigenvalues    EBANDS =      -107.48238454
  atomic energy  EATOM  =       457.26981990
  Solvation  Ediel_sol  =        -2.33883278
  ---------------------------------------------------
  free energy    TOTEN  =       -14.44130201 eV

  energy without entropy =      -14.44130201  energy(sigma->0) =      -14.44130201


--------------------------------------------------------------------------------------------------------




--------------------------------------- Iteration      1(  10)  ---------------------------------------


    POTLOK:  cpu time      3.5842: real time      3.6259
    SETDIJ:  cpu time      0.0892: real time      0.0898
     EDDAV:  cpu time      0.2498: real time      0.2534
       DOS:  cpu time      0.0003: real time      0.0003
    CHARGE:  cpu time      0.0645: real time      0.0657
    MIXING:  cpu time      0.0019: real time      0.0019
    --------------------------------------------
      LOOP:  cpu time      3.9899: real time      4.0370

 eigenvalue-minimisations  :    96
 total energy-change (2. order) :-0.9113909E-02  (-0.2768142E-02)
 number of electron       8.0000001 magnetization 
 augmentation part        0.6948643 magnetization 

 DIPCOR: dipole corrections for dipol
 direction  3 min pos     1,
 dipolmoment           0.000000      0.000000     -0.000000 electrons x Angstroem
 Tr[quadrupol]     -1449.645427

 energy correction for charged system         0.000000 eV
 dipol+quadrupol energy correction           -0.000000 eV
 added-field ion interaction         -0.000000 eV  (added to PSCEN)


 Broyden mixing:
  rms(total) = 0.70180E-02    rms(broyden)= 0.69706E-02
  rms(prec ) = 0.15568E-01
  weight for this iteration     100.00

 eigenvalues of (default mixing * dielectric matrix)
  average eigenvalue GAMMA=   1.9070
  3.8430  2.4106  1.0107  1.0107  1.2600

 Free energy of the ion-electron system (eV)
  ---------------------------------------------------
  alpha Z        PSCENC =         0.02803141
  Ewald energy   TEWEN  =       121.63075842
  -Hartree energ DENC   =      -516.91245724
  -exchange      EXHF   =         0.00000000
  -V(xc)+E(xc)   XCENC  =        33.73393024
  PAW double counting   =       567.68153647     -569.46601060
  entropy T*S    EENTRO =        -0.00000000
  eigenvalues    EBANDS =      -106.34907573
  atomic energy  EATOM  =       457.26981990
  Solvation  Ediel_sol  =        -2.06694879
  ---------------------------------------------------
  free energy    TOTEN  =       -14.45041592 eV

  energy without entropy =      -14.45041592  energy(sigma->0) =      -14.45041592


--------------------------------------------------------------------------------------------------------




--------------------------------------- Iteration      1(  11)  ---------------------------------------


    POTLOK:  cpu time      3.2222: real time      3.2576
    SETDIJ:  cpu time      0.0881: real time      0.0890
     EDDAV:  cpu time      0.3412: real time      0.3452
       DOS:  cpu time      0.0003: real time      0.0003
    CHARGE:  cpu time      0.0653: real time      0.0665
    MIXING:  cpu time      0.0018: real time      0.0018
    --------------------------------------------
      LOOP:  cpu time      3.7190: real time      3.7604

 eigenvalue-minimisations  :   128
 total energy-change (2. order) :-0.7472913E-02  (-0.3241836E-03)
 number of electron       8.0000001 magnetization 
 augmentation part        0.6942955 magnetization 

 DIPCOR: dipole corrections for dipol
 direction  3 min pos     1,
 dipolmoment           0.000000      0.000000     -0.000000 electrons x Angstroem
 Tr[quadrupol]     -1449.651032

 energy correction for charged system         0.000000 eV
 dipol+quadrupol energy correction           -0.000000 eV
 added-field ion interaction         -0.000000 eV  (added to PSCEN)


 Broyden mixing:
  rms(total) = 0.51679E-02    rms(broyden)= 0.51484E-02
  rms(prec ) = 0.12429E-01
  weight for this iteration     100.00

 eigenvalues of (default mixing * dielectric matrix)
  average eigenvalue GAMMA=   2.2098
  5.0765  2.8370  2.3252  1.0677  0.9763  0.9763

 Free energy of the ion-electron system (eV)
  ---------------------------------------------------
  alpha Z        PSCENC =         0.02803141
  Ewald energy   TEWEN  =       121.63075842
  -Hartree energ DENC   =      -517.34980275
  -exchange      EXHF   =         0.00000000
  -V(xc)+E(xc)   XCENC  =        33.74395981
  PAW double counting   =       568.84913199     -570.63487071
  entropy T*S    EENTRO =        -0.00000000
  eigenvalues    EBANDS =      -106.05491070
  atomic energy  EATOM  =       457.26981990
  Solvation  Ediel_sol  =        -1.94000618
  ---------------------------------------------------
  free energy    TOTEN  =       -14.45788883 eV

  energy without entropy =      -14.45788883  energy(sigma->0) =      -14.45788883


--------------------------------------------------------------------------------------------------------




--------------------------------------- Iteration      1(  12)  ---------------------------------------


    POTLOK:  cpu time      3.4543: real time      3.4923
    SETDIJ:  cpu time      0.0897: real time      0.0903
     EDDAV:  cpu time      0.1778: real time      0.1799
       DOS:  cpu time      0.0003: real time      0.0003
    CHARGE:  cpu time      0.0642: real time      0.0655
    MIXING:  cpu time      0.0018: real time      0.0018
    --------------------------------------------
      LOOP:  cpu time      3.7882: real time      3.8301

 eigenvalue-minimisations  :    64
 total energy-change (2. order) :-0.1141906E-01  (-0.6093567E-03)
 number of electron       8.0000001 magnetization 
 augmentation part        0.6949252 magnetization 

 DIPCOR: dipole corrections for dipol
 direction  3 min pos     1,
 dipolmoment           0.000000      0.000000     -0.000000 electrons x Angstroem
 Tr[quadrupol]     -1449.666239

 energy correction for charged system         0.000000 eV
 dipol+quadrupol energy correction           -0.000000 eV
 added-field ion interaction         -0.000000 eV  (added to PSCEN)


 Broyden mixing:
  rms(total) = 0.33302E-02    rms(broyden)= 0.33260E-02
  rms(prec ) = 0.81247E-02
  weight for this iteration     100.00

 eigenvalues of (default mixing * dielectric matrix)
  average eigenvalue GAMMA=   2.2159
  5.1665  3.4931  2.4538  0.9894  0.9894  1.0210  1.3977

 Free energy of the ion-electron system (eV)
  ---------------------------------------------------
  alpha Z        PSCENC =         0.02803141
  Ewald energy   TEWEN  =       121.63075842
  -Hartree energ DENC   =      -517.42736426
  -exchange      EXHF   =         0.00000000
  -V(xc)+E(xc)   XCENC  =        33.72441955
  PAW double counting   =       568.12038463     -569.90529999
  entropy T*S    EENTRO =        -0.00000000
  eigenvalues    EBANDS =      -106.27117671
  atomic energy  EATOM  =       457.26981990
  Solvation  Ediel_sol  =        -1.63888085
  ---------------------------------------------------
  free energy    TOTEN  =       -14.46930789 eV

  energy without entropy =      -14.46930789  energy(sigma->0) =      -14.46930789


--------------------------------------------------------------------------------------------------------




--------------------------------------- Iteration      1(  13)  ---------------------------------------


    POTLOK:  cpu time      3.1785: real time      3.2136
    SETDIJ:  cpu time      0.0892: real time      0.0899
     EDDAV:  cpu time      0.3412: real time      0.3459
       DOS:  cpu time      0.0003: real time      0.0003
    CHARGE:  cpu time      0.0644: real time      0.0657
    MIXING:  cpu time      0.0021: real time      0.0022
    --------------------------------------------
      LOOP:  cpu time      3.6759: real time      3.7176

 eigenvalue-minimisations  :   128
 total energy-change (2. order) :-0.4144695E-02  (-0.1773361E-03)
 number of electron       8.0000001 magnetization 
 augmentation part        0.6950153 magnetization 

 DIPCOR: dipole corrections for dipol
 direction  3 min pos     1,
 dipolmoment           0.000000      0.000000     -0.000000 electrons x Angstroem
 Tr[quadrupol]     -1449.678792

 energy correction for charged system         0.000000 eV
 dipol+quadrupol energy correction           -0.000000 eV
 added-field ion interaction         -0.000000 eV  (added to PSCEN)


 Broyden mixing:
  rms(total) = 0.33457E-02    rms(broyden)= 0.33427E-02
  rms(prec ) = 0.66992E-02
  weight for this iteration     100.00

 eigenvalues of (default mixing * dielectric matrix)
  average eigenvalue GAMMA=   2.4291
  6.5566  3.7917  2.5244  2.5244  0.9702  0.9702  1.0476  1.0476

 Free energy of the ion-electron system (eV)
  ---------------------------------------------------
  alpha Z        PSCENC =         0.02803141
  Ewald energy   TEWEN  =       121.63075842
  -Hartree energ DENC   =      -517.36055323
  -exchange      EXHF   =         0.00000000
  -V(xc)+E(xc)   XCENC  =        33.71881403
  PAW double counting   =       569.50024915     -571.28526632
  entropy T*S    EENTRO =        -0.00000000
  eigenvalues    EBANDS =      -106.41614263
  atomic energy  EATOM  =       457.26981990
  Solvation  Ediel_sol  =        -1.55916331
  ---------------------------------------------------
  free energy    TOTEN  =       -14.47345259 eV

  energy without entropy =      -14.47345259  energy(sigma->0) =      -14.47345259


--------------------------------------------------------------------------------------------------------




--------------------------------------- Iteration      1(  14)  ---------------------------------------


    POTLOK:  cpu time      3.9251: real time      3.9652
    SETDIJ:  cpu time      0.0883: real time      0.0890
     EDDAV:  cpu time      0.3390: real time      0.3433
       DOS:  cpu time      0.0003: real time      0.0003
    CHARGE:  cpu time      0.0642: real time      0.0655
    MIXING:  cpu time      0.0021: real time      0.0021
    --------------------------------------------
      LOOP:  cpu time      4.4191: real time      4.4655

 eigenvalue-minimisations  :   128
 total energy-change (2. order) :-0.1120136E-02  (-0.1242445E-03)
 number of electron       8.0000001 magnetization 
 augmentation part        0.6944672 magnetization 

 DIPCOR: dipole corrections for dipol
 direction  3 min pos     1,
 dipolmoment           0.000000      0.000000     -0.000000 electrons x Angstroem
 Tr[quadrupol]     -1449.698065

 energy correction for charged system         0.000000 eV
 dipol+quadrupol energy correction           -0.000000 eV
 added-field ion interaction         -0.000000 eV  (added to PSCEN)


 Broyden mixing:
  rms(total) = 0.21601E-02    rms(broyden)= 0.21577E-02
  rms(prec ) = 0.45824E-02
  weight for this iteration     100.00

 eigenvalues of (default mixing * dielectric matrix)
  average eigenvalue GAMMA=   2.5354
  7.9246  4.1661  2.9900  2.4274  1.3958  1.0196  1.0196  0.9375  0.9375

 Free energy of the ion-electron system (eV)
  ---------------------------------------------------
  alpha Z        PSCENC =         0.02803141
  Ewald energy   TEWEN  =       121.63075842
  -Hartree energ DENC   =      -517.49749701
  -exchange      EXHF   =         0.00000000
  -V(xc)+E(xc)   XCENC  =        33.72162941
  PAW double counting   =       568.38965364     -570.17613072
  entropy T*S    EENTRO =        -0.00000000
  eigenvalues    EBANDS =      -106.35443926
  atomic energy  EATOM  =       457.26981990
  Solvation  Ediel_sol  =        -1.48639851
  ---------------------------------------------------
  free energy    TOTEN  =       -14.47457272 eV

  energy without entropy =      -14.47457272  energy(sigma->0) =      -14.47457272


--------------------------------------------------------------------------------------------------------




--------------------------------------- Iteration      1(  15)  ---------------------------------------


    POTLOK:  cpu time      2.9825: real time      3.0170
    SETDIJ:  cpu time      0.0890: real time      0.0898
     EDDAV:  cpu time      0.3373: real time      0.3418
       DOS:  cpu time      0.0004: real time      0.0003
    CHARGE:  cpu time      0.0638: real time      0.0652
    MIXING:  cpu time      0.0021: real time      0.0022
    --------------------------------------------
      LOOP:  cpu time      3.4751: real time      3.5163

 eigenvalue-minimisations  :   128
 total energy-change (2. order) :-0.8207441E-03  (-0.6047411E-04)
 number of electron       8.0000001 magnetization 
 augmentation part        0.6945151 magnetization 

 DIPCOR: dipole corrections for dipol
 direction  3 min pos     1,
 dipolmoment           0.000000      0.000000     -0.000000 electrons x Angstroem
 Tr[quadrupol]     -1449.708323

 energy correction for charged system         0.000000 eV
 dipol+quadrupol energy correction           -0.000000 eV
 added-field ion interaction         -0.000000 eV  (added to PSCEN)


 Broyden mixing:
  rms(total) = 0.15673E-02    rms(broyden)= 0.15669E-02
  rms(prec ) = 0.35909E-02
  weight for this iteration     100.00

 eigenvalues of (default mixing * dielectric matrix)
  average eigenvalue GAMMA=   2.7779
  9.0996  5.4479  3.2754  2.4698  2.4698  0.9633  0.9633  1.0561  1.0561  0.9777

 Free energy of the ion-electron system (eV)
  ---------------------------------------------------
  alpha Z        PSCENC =         0.02803141
  Ewald energy   TEWEN  =       121.63075842
  -Hartree energ DENC   =      -517.50440885
  -exchange      EXHF   =         0.00000000
  -V(xc)+E(xc)   XCENC  =        33.72123074
  PAW double counting   =       568.46739021     -570.25302104
  entropy T*S    EENTRO =        -0.00000000
  eigenvalues    EBANDS =      -106.35263871
  atomic energy  EATOM  =       457.26981990
  Solvation  Ediel_sol  =        -1.48255555
  ---------------------------------------------------
  free energy    TOTEN  =       -14.47539347 eV

  energy without entropy =      -14.47539347  energy(sigma->0) =      -14.47539347


--------------------------------------------------------------------------------------------------------




--------------------------------------- Iteration      1(  16)  ---------------------------------------


    POTLOK:  cpu time      3.0147: real time      3.0492
    SETDIJ:  cpu time      0.0889: real time      0.0897
     EDDAV:  cpu time      0.3373: real time      0.3415
       DOS:  cpu time      0.0003: real time      0.0008
    CHARGE:  cpu time      0.0645: real time      0.0652
    MIXING:  cpu time      0.0022: real time      0.0022
    --------------------------------------------
      LOOP:  cpu time      3.5077: real time      3.5486

 eigenvalue-minimisations  :   128
 total energy-change (2. order) :-0.1104905E-02  (-0.1026543E-03)
 number of electron       8.0000001 magnetization 
 augmentation part        0.6945834 magnetization 

 DIPCOR: dipole corrections for dipol
 direction  3 min pos     1,
 dipolmoment           0.000000      0.000000     -0.000001 electrons x Angstroem
 Tr[quadrupol]     -1449.725597

 energy correction for charged system         0.000000 eV
 dipol+quadrupol energy correction           -0.000000 eV
 added-field ion interaction         -0.000000 eV  (added to PSCEN)


 Broyden mixing:
  rms(total) = 0.10016E-02    rms(broyden)= 0.99997E-03
  rms(prec ) = 0.23310E-02
  weight for this iteration     100.00

 eigenvalues of (default mixing * dielectric matrix)
  average eigenvalue GAMMA=   3.0262
 11.4070  6.0191  3.6413  2.9536  2.4404  1.8477  0.9541  0.9541  1.0683  1.0012
  1.0012

 Free energy of the ion-electron system (eV)
  ---------------------------------------------------
  alpha Z        PSCENC =         0.02803141
  Ewald energy   TEWEN  =       121.63075842
  -Hartree energ DENC   =      -517.49271125
  -exchange      EXHF   =         0.00000000
  -V(xc)+E(xc)   XCENC  =        33.71859840
  PAW double counting   =       568.54557856     -570.32978570
  entropy T*S    EENTRO =        -0.00000000
  eigenvalues    EBANDS =      -106.38226584
  atomic energy  EATOM  =       457.26981990
  Solvation  Ediel_sol  =        -1.46452227
  ---------------------------------------------------
  free energy    TOTEN  =       -14.47649837 eV

  energy without entropy =      -14.47649837  energy(sigma->0) =      -14.47649837


--------------------------------------------------------------------------------------------------------




--------------------------------------- Iteration      1(  17)  ---------------------------------------


    POTLOK:  cpu time      2.9965: real time      3.0323
    SETDIJ:  cpu time      0.0895: real time      0.0902
     EDDAV:  cpu time      0.2509: real time      0.2552
       DOS:  cpu time      0.0003: real time      0.0003
    CHARGE:  cpu time      0.0653: real time      0.0666
    MIXING:  cpu time      0.0023: real time      0.0023
    --------------------------------------------
      LOOP:  cpu time      3.4049: real time      3.4469

 eigenvalue-minimisations  :    96
 total energy-change (2. order) :-0.1327410E-02  (-0.4625786E-04)
 number of electron       8.0000001 magnetization 
 augmentation part        0.6946608 magnetization 

 DIPCOR: dipole corrections for dipol
 direction  3 min pos     1,
 dipolmoment           0.000000      0.000000     -0.000001 electrons x Angstroem
 Tr[quadrupol]     -1449.734504

 energy correction for charged system         0.000000 eV
 dipol+quadrupol energy correction           -0.000000 eV
 added-field ion interaction         -0.000000 eV  (added to PSCEN)


 Broyden mixing:
  rms(total) = 0.10681E-02    rms(broyden)= 0.10678E-02
  rms(prec ) = 0.18708E-02
  weight for this iteration     100.00

 eigenvalues of (default mixing * dielectric matrix)
  average eigenvalue GAMMA=   3.0631
 12.7530  6.1567  4.0013  3.0658  2.3468  2.3468  0.9604  0.9604  1.0856  1.0856
  0.9976  0.9976

 Free energy of the ion-electron system (eV)
  ---------------------------------------------------
  alpha Z        PSCENC =         0.02803141
  Ewald energy   TEWEN  =       121.63075842
  -Hartree energ DENC   =      -517.51865797
  -exchange      EXHF   =         0.00000000
  -V(xc)+E(xc)   XCENC  =        33.71707388
  PAW double counting   =       568.57700912     -570.36120555
  entropy T*S    EENTRO =        -0.00000000
  eigenvalues    EBANDS =      -106.38914547
  atomic energy  EATOM  =       457.26981990
  Solvation  Ediel_sol  =        -1.43150953
  ---------------------------------------------------
  free energy    TOTEN  =       -14.47782578 eV

  energy without entropy =      -14.47782578  energy(sigma->0) =      -14.47782578


--------------------------------------------------------------------------------------------------------




--------------------------------------- Iteration      1(  18)  ---------------------------------------


    POTLOK:  cpu time      2.9259: real time      3.0376
    SETDIJ:  cpu time      0.0893: real time      0.0900
     EDDAV:  cpu time      0.1779: real time      0.1800
       DOS:  cpu time      0.0003: real time      0.0003
    CHARGE:  cpu time      0.0642: real time      0.0656
    MIXING:  cpu time      0.0025: real time      0.0025
    --------------------------------------------
      LOOP:  cpu time      3.2603: real time      3.3762

 eigenvalue-minimisations  :    64
 total energy-change (2. order) :-0.5790922E-03  (-0.1018273E-04)
 number of electron       8.0000001 magnetization 
 augmentation part        0.6946178 magnetization 

 DIPCOR: dipole corrections for dipol
 direction  3 min pos     1,
 dipolmoment           0.000000      0.000000     -0.000001 electrons x Angstroem
 Tr[quadrupol]     -1449.738471

 energy correction for charged system         0.000000 eV
 dipol+quadrupol energy correction           -0.000000 eV
 added-field ion interaction         -0.000000 eV  (added to PSCEN)


 Broyden mixing:
  rms(total) = 0.54108E-03    rms(broyden)= 0.54097E-03
  rms(prec ) = 0.13055E-02
  weight for this iteration     100.00

 eigenvalues of (default mixing * dielectric matrix)
  average eigenvalue GAMMA=   3.3429
 15.2811  7.1313  4.7047  3.1758  2.7646  2.3846  2.0067  0.9571  0.9571  1.0870
  0.9807  1.0131  1.0131

 Free energy of the ion-electron system (eV)
  ---------------------------------------------------
  alpha Z        PSCENC =         0.02803141
  Ewald energy   TEWEN  =       121.63075842
  -Hartree energ DENC   =      -517.53496035
  -exchange      EXHF   =         0.00000000
  -V(xc)+E(xc)   XCENC  =        33.71685318
  PAW double counting   =       568.46848350     -570.25323976
  entropy T*S    EENTRO =        -0.00000000
  eigenvalues    EBANDS =      -106.38086115
  atomic energy  EATOM  =       457.26981990
  Solvation  Ediel_sol  =        -1.42329002
  ---------------------------------------------------
  free energy    TOTEN  =       -14.47840487 eV

  energy without entropy =      -14.47840487  energy(sigma->0) =      -14.47840487


--------------------------------------------------------------------------------------------------------




--------------------------------------- Iteration      1(  19)  ---------------------------------------


    POTLOK:  cpu time      2.9167: real time      2.9491
    SETDIJ:  cpu time      0.0885: real time      0.0893
     EDDAV:  cpu time      0.3375: real time      0.3414
       DOS:  cpu time      0.0003: real time      0.0003
    CHARGE:  cpu time      0.0641: real time      0.0654
    MIXING:  cpu time      0.0025: real time      0.0025
    --------------------------------------------
      LOOP:  cpu time      3.4095: real time      3.4478

 eigenvalue-minimisations  :   128
 total energy-change (2. order) :-0.4675154E-03  (-0.6328543E-05)
 number of electron       8.0000001 magnetization 
 augmentation part        0.6945160 magnetization 

 DIPCOR: dipole corrections for dipol
 direction  3 min pos     1,
 dipolmoment           0.000000      0.000000     -0.000001 electrons x Angstroem
 Tr[quadrupol]     -1449.742989

 energy correction for charged system         0.000000 eV
 dipol+quadrupol energy correction           -0.000000 eV
 added-field ion interaction         -0.000000 eV  (added to PSCEN)


 Broyden mixing:
  rms(total) = 0.67373E-03    rms(broyden)= 0.67325E-03
  rms(prec ) = 0.10622E-02
  weight for this iteration     100.00

 eigenvalues of (default mixing * dielectric matrix)
  average eigenvalue GAMMA=   3.3660
 16.2894  7.2702  5.1569  3.3929  2.9010  2.3917  2.3917  1.3434  0.9557  0.9557
  1.0504  1.0504  0.9876  0.9876

 Free energy of the ion-electron system (eV)
  ---------------------------------------------------
  alpha Z        PSCENC =         0.02803141
  Ewald energy   TEWEN  =       121.63075842
  -Hartree energ DENC   =      -517.56244077
  -exchange      EXHF   =         0.00000000
  -V(xc)+E(xc)   XCENC  =        33.71778844
  PAW double counting   =       568.55307737     -570.33831121
  entropy T*S    EENTRO =        -0.00000000
  eigenvalues    EBANDS =      -106.35303401
  atomic energy  EATOM  =       457.26981990
  Solvation  Ediel_sol  =        -1.42456194
  ---------------------------------------------------
  free energy    TOTEN  =       -14.47887239 eV

  energy without entropy =      -14.47887239  energy(sigma->0) =      -14.47887239


--------------------------------------------------------------------------------------------------------




--------------------------------------- Iteration      1(  20)  ---------------------------------------


    POTLOK:  cpu time      3.0198: real time      3.8169
    SETDIJ:  cpu time      0.0731: real time      0.0928
     EDDAV:  cpu time      0.3551: real time      0.3915
       DOS:  cpu time      0.0008: real time      0.0008
    CHARGE:  cpu time      0.0661: real time      0.0676
    MIXING:  cpu time      0.0029: real time      0.0029
    --------------------------------------------
      LOOP:  cpu time      3.5178: real time      4.3725

 eigenvalue-minimisations  :    96
 total energy-change (2. order) :-0.3961359E-03  (-0.8680168E-05)
 number of electron       8.0000001 magnetization 
 augmentation part        0.6946907 magnetization 

 DIPCOR: dipole corrections for dipol
 direction  3 min pos     1,
 dipolmoment           0.000000      0.000000     -0.000001 electrons x Angstroem
 Tr[quadrupol]     -1449.745319

 energy correction for charged system         0.000000 eV
 dipol+quadrupol energy correction           -0.000000 eV
 added-field ion interaction         -0.000000 eV  (added to PSCEN)


 Broyden mixing:
  rms(total) = 0.56835E-03    rms(broyden)= 0.56770E-03
  rms(prec ) = 0.78221E-03
  weight for this iteration     100.00

 eigenvalues of (default mixing * dielectric matrix)
  average eigenvalue GAMMA=   3.6178
 18.7340  8.6808  5.5662  4.0641  3.1746  2.5615  2.4027  2.0896  1.1279  0.9539
  0.9539  1.0255  1.0255  0.9780  0.9282

 Free energy of the ion-electron system (eV)
  ---------------------------------------------------
  alpha Z        PSCENC =         0.02803141
  Ewald energy   TEWEN  =       121.63075842
  -Hartree energ DENC   =      -517.53335376
  -exchange      EXHF   =         0.00000000
  -V(xc)+E(xc)   XCENC  =        33.71602601
  PAW double counting   =       568.50446319     -570.28934319
  entropy T*S    EENTRO =        -0.00000000
  eigenvalues    EBANDS =      -106.37772196
  atomic energy  EATOM  =       457.26981990
  Solvation  Ediel_sol  =        -1.42794854
  ---------------------------------------------------
  free energy    TOTEN  =       -14.47926853 eV

  energy without entropy =      -14.47926853  energy(sigma->0) =      -14.47926853


--------------------------------------------------------------------------------------------------------




--------------------------------------- Iteration      1(  21)  ---------------------------------------


    POTLOK:  cpu time      2.8478: real time      2.8769
    SETDIJ:  cpu time      0.0888: real time      0.0894
     EDDAV:  cpu time      0.3346: real time      0.3381
       DOS:  cpu time      0.0003: real time      0.0003
    CHARGE:  cpu time      0.0644: real time      0.0656
    MIXING:  cpu time      0.0027: real time      0.0027
    --------------------------------------------
      LOOP:  cpu time      3.3385: real time      3.3729

 eigenvalue-minimisations  :   128
 total energy-change (2. order) :-0.7681146E-04  (-0.1876181E-05)
 number of electron       8.0000001 magnetization 
 augmentation part        0.6946212 magnetization 

 DIPCOR: dipole corrections for dipol
 direction  3 min pos     1,
 dipolmoment           0.000000      0.000000     -0.000001 electrons x Angstroem
 Tr[quadrupol]     -1449.746683

 energy correction for charged system         0.000000 eV
 dipol+quadrupol energy correction           -0.000000 eV
 added-field ion interaction         -0.000000 eV  (added to PSCEN)


 Broyden mixing:
  rms(total) = 0.21236E-03    rms(broyden)= 0.21194E-03
  rms(prec ) = 0.40105E-03
  weight for this iteration     100.00

 eigenvalues of (default mixing * dielectric matrix)
  average eigenvalue GAMMA=   3.7430
 20.2626  9.6187  6.1556  4.1477  3.1126  2.7046  2.5218  2.5218  1.8364  1.1178
  0.9545  0.9545  1.0320  1.0320  0.9581  0.9581

 Free energy of the ion-electron system (eV)
  ---------------------------------------------------
  alpha Z        PSCENC =         0.02803141
  Ewald energy   TEWEN  =       121.63075842
  -Hartree energ DENC   =      -517.54279323
  -exchange      EXHF   =         0.00000000
  -V(xc)+E(xc)   XCENC  =        33.71671247
  PAW double counting   =       568.53817719     -570.32319585
  entropy T*S    EENTRO =        -0.00000000
  eigenvalues    EBANDS =      -106.36509513
  atomic energy  EATOM  =       457.26981990
  Solvation  Ediel_sol  =        -1.43176052
  ---------------------------------------------------
  free energy    TOTEN  =       -14.47934534 eV

  energy without entropy =      -14.47934534  energy(sigma->0) =      -14.47934534


--------------------------------------------------------------------------------------------------------




--------------------------------------- Iteration      1(  22)  ---------------------------------------


    POTLOK:  cpu time      2.7840: real time      2.8169
    SETDIJ:  cpu time      0.1042: real time      0.1050
     EDDAV:  cpu time      0.5622: real time      0.5669
       DOS:  cpu time      0.0084: real time      0.0085
    CHARGE:  cpu time      0.0842: real time      0.0855
    MIXING:  cpu time      0.0217: real time      0.0218
    --------------------------------------------
      LOOP:  cpu time      3.5648: real time      3.6044

 eigenvalue-minimisations  :   128
 total energy-change (2. order) :-0.1712434E-03  (-0.9499315E-06)
 number of electron       8.0000001 magnetization 
 augmentation part        0.6945964 magnetization 

 DIPCOR: dipole corrections for dipol
 direction  3 min pos     1,
 dipolmoment           0.000000      0.000000     -0.000001 electrons x Angstroem
 Tr[quadrupol]     -1449.747808

 energy correction for charged system         0.000000 eV
 dipol+quadrupol energy correction           -0.000000 eV
 added-field ion interaction         -0.000000 eV  (added to PSCEN)


 Broyden mixing:
  rms(total) = 0.10263E-03    rms(broyden)= 0.10242E-03
  rms(prec ) = 0.20941E-03
  weight for this iteration     100.00

 eigenvalues of (default mixing * dielectric matrix)
  average eigenvalue GAMMA=   3.8907
 22.1309 11.0202  6.4782  5.0030  3.2669  3.2669  2.4592  2.4592  1.9915  1.1591
  0.9553  0.9553  1.0332  1.0332  1.0348  0.9477  0.9477

 Free energy of the ion-electron system (eV)
  ---------------------------------------------------
  alpha Z        PSCENC =         0.02803141
  Ewald energy   TEWEN  =       121.63075842
  -Hartree energ DENC   =      -517.54801225
  -exchange      EXHF   =         0.00000000
  -V(xc)+E(xc)   XCENC  =        33.71670834
  PAW double counting   =       568.53222955     -570.31714988
  entropy T*S    EENTRO =        -0.00000000
  eigenvalues    EBANDS =      -106.36353405
  atomic energy  EATOM  =       457.26981990
  Solvation  Ediel_sol  =        -1.42836802
  ---------------------------------------------------
  free energy    TOTEN  =       -14.47951658 eV

  energy without entropy =      -14.47951658  energy(sigma->0) =      -14.47951658


--------------------------------------------------------------------------------------------------------




--------------------------------------- Iteration      1(  23)  ---------------------------------------


    POTLOK:  cpu time      2.9026: real time      2.9305
    SETDIJ:  cpu time      0.0891: real time      0.0897
     EDDAV:  cpu time      0.2523: real time      0.2550
       DOS:  cpu time      0.0004: real time      0.0004
    CHARGE:  cpu time      0.0641: real time      0.0652
    MIXING:  cpu time      0.0029: real time      0.0029
    --------------------------------------------
      LOOP:  cpu time      3.3113: real time      3.3438

 eigenvalue-minimisations  :    96
 total energy-change (2. order) :-0.4806443E-04  (-0.2294950E-06)
 number of electron       8.0000001 magnetization 
 augmentation part        0.6946012 magnetization 

 DIPCOR: dipole corrections for dipol
 direction  3 min pos     1,
 dipolmoment           0.000000      0.000000     -0.000001 electrons x Angstroem
 Tr[quadrupol]     -1449.748297

 energy correction for charged system         0.000000 eV
 dipol+quadrupol energy correction           -0.000000 eV
 added-field ion interaction         -0.000000 eV  (added to PSCEN)


 Broyden mixing:
  rms(total) = 0.91585E-04    rms(broyden)= 0.91453E-04
  rms(prec ) = 0.15582E-03
  weight for this iteration     100.00

 eigenvalues of (default mixing * dielectric matrix)
  average eigenvalue GAMMA=   4.0871
 24.3958 12.4631  7.1243  5.2681  3.9318  3.2771  2.6732  2.3653  2.1957  1.8631
  1.1314  0.9546  0.9546  1.0358  1.0358  0.9795  0.9795  0.9389

 Free energy of the ion-electron system (eV)
  ---------------------------------------------------
  alpha Z        PSCENC =         0.02803141
  Ewald energy   TEWEN  =       121.63075842
  -Hartree energ DENC   =      -517.54480513
  -exchange      EXHF   =         0.00000000
  -V(xc)+E(xc)   XCENC  =        33.71651113
  PAW double counting   =       568.54272566     -570.32758511
  entropy T*S    EENTRO =        -0.00000000
  eigenvalues    EBANDS =      -106.36761344
  atomic energy  EATOM  =       457.26981990
  Solvation  Ediel_sol  =        -1.42740749
  ---------------------------------------------------
  free energy    TOTEN  =       -14.47956465 eV

  energy without entropy =      -14.47956465  energy(sigma->0) =      -14.47956465


--------------------------------------------------------------------------------------------------------




--------------------------------------- Iteration      1(  24)  ---------------------------------------


    POTLOK:  cpu time      2.6458: real time      2.6727
    SETDIJ:  cpu time      0.0886: real time      0.0893
     EDDAV:  cpu time      0.1760: real time      0.1781
       DOS:  cpu time      0.0003: real time      0.0003
    CHARGE:  cpu time      0.0641: real time      0.0653
    MIXING:  cpu time      0.0029: real time      0.0030
    --------------------------------------------
      LOOP:  cpu time      2.9777: real time      3.0086

 eigenvalue-minimisations  :    64
 total energy-change (2. order) :-0.7608600E-04  (-0.3359020E-06)
 number of electron       8.0000001 magnetization 
 augmentation part        0.6945905 magnetization 

 DIPCOR: dipole corrections for dipol
 direction  3 min pos     1,
 dipolmoment           0.000000      0.000000     -0.000001 electrons x Angstroem
 Tr[quadrupol]     -1449.748699

 energy correction for charged system         0.000000 eV
 dipol+quadrupol energy correction           -0.000000 eV
 added-field ion interaction         -0.000000 eV  (added to PSCEN)


 Broyden mixing:
  rms(total) = 0.48481E-04    rms(broyden)= 0.47910E-04
  rms(prec ) = 0.86498E-04
  weight for this iteration     100.00

 eigenvalues of (default mixing * dielectric matrix)
  average eigenvalue GAMMA=   4.1371
 25.7708 13.3038  7.5206  5.3834  4.0345  3.2650  2.7821  2.7821  2.4500  1.8505
  1.4310  1.1315  0.9545  0.9545  1.0363  1.0363  0.9629  0.9629  0.9924

 Free energy of the ion-electron system (eV)
  ---------------------------------------------------
  alpha Z        PSCENC =         0.02803141
  Ewald energy   TEWEN  =       121.63075842
  -Hartree energ DENC   =      -517.54621901
  -exchange      EXHF   =         0.00000000
  -V(xc)+E(xc)   XCENC  =        33.71643167
  PAW double counting   =       568.54125055     -570.32616809
  entropy T*S    EENTRO =        -0.00000000
  eigenvalues    EBANDS =      -106.36753471
  atomic energy  EATOM  =       457.26981990
  Solvation  Ediel_sol  =        -1.42601086
  ---------------------------------------------------
  free energy    TOTEN  =       -14.47964073 eV

  energy without entropy =      -14.47964073  energy(sigma->0) =      -14.47964073


--------------------------------------------------------------------------------------------------------




--------------------------------------- Iteration      1(  25)  ---------------------------------------


    POTLOK:  cpu time      2.5929: real time      2.6189
    SETDIJ:  cpu time      0.0883: real time      0.0890
     EDDAV:  cpu time      0.3376: real time      0.3411
       DOS:  cpu time      0.0003: real time      0.0003
    CHARGE:  cpu time      0.0645: real time      0.0657
    MIXING:  cpu time      0.0032: real time      0.0032
    --------------------------------------------
      LOOP:  cpu time      3.0868: real time      3.1183

 eigenvalue-minimisations  :   128
 total energy-change (2. order) :-0.3171920E-04  (-0.7842423E-07)
 number of electron       8.0000001 magnetization 
 augmentation part        0.6945949 magnetization 

 DIPCOR: dipole corrections for dipol
 direction  3 min pos     1,
 dipolmoment           0.000000      0.000000     -0.000001 electrons x Angstroem
 Tr[quadrupol]     -1449.748838

 energy correction for charged system         0.000000 eV
 dipol+quadrupol energy correction           -0.000000 eV
 added-field ion interaction         -0.000000 eV  (added to PSCEN)


 Broyden mixing:
  rms(total) = 0.32343E-04    rms(broyden)= 0.31997E-04
  rms(prec ) = 0.53099E-04
  weight for this iteration     100.00

 eigenvalues of (default mixing * dielectric matrix)
  average eigenvalue GAMMA=   4.1882
 26.6478 13.8451  7.9745  5.4919  4.5454  3.4737  3.4737  2.4124  2.4299  2.4299
  1.9157  1.1714  0.9547  0.9547  1.0906  1.0351  1.0351  0.9705  0.9705  0.9422

 Free energy of the ion-electron system (eV)
  ---------------------------------------------------
  alpha Z        PSCENC =         0.02803141
  Ewald energy   TEWEN  =       121.63075842
  -Hartree energ DENC   =      -517.54457971
  -exchange      EXHF   =         0.00000000
  -V(xc)+E(xc)   XCENC  =        33.71631673
  PAW double counting   =       568.53421813     -570.31912484
  entropy T*S    EENTRO =        -0.00000000
  eigenvalues    EBANDS =      -106.36850294
  atomic energy  EATOM  =       457.26981990
  Solvation  Ediel_sol  =        -1.42660955
  ---------------------------------------------------
  free energy    TOTEN  =       -14.47967245 eV

  energy without entropy =      -14.47967245  energy(sigma->0) =      -14.47967245


--------------------------------------------------------------------------------------------------------




--------------------------------------- Iteration      1(  26)  ---------------------------------------


    POTLOK:  cpu time      2.6367: real time      2.6622
    SETDIJ:  cpu time      0.0896: real time      0.0903
     EDDAV:  cpu time      0.3646: real time      0.4412
       DOS:  cpu time      0.0003: real time      0.0003
    CHARGE:  cpu time      0.0647: real time      0.0662
    MIXING:  cpu time      0.0032: real time      0.0032
    --------------------------------------------
      LOOP:  cpu time      3.1592: real time      3.2635

 eigenvalue-minimisations  :   128
 total energy-change (2. order) :-0.5889311E-05  (-0.2616896E-07)
 number of electron       8.0000001 magnetization 
 augmentation part        0.6945998 magnetization 

 DIPCOR: dipole corrections for dipol
 direction  3 min pos     1,
 dipolmoment           0.000000      0.000000     -0.000001 electrons x Angstroem
 Tr[quadrupol]     -1449.748921

 energy correction for charged system         0.000000 eV
 dipol+quadrupol energy correction           -0.000000 eV
 added-field ion interaction         -0.000000 eV  (added to PSCEN)


 Broyden mixing:
  rms(total) = 0.27188E-04    rms(broyden)= 0.26844E-04
  rms(prec ) = 0.35267E-04
  weight for this iteration     100.00

 eigenvalues of (default mixing * dielectric matrix)
  average eigenvalue GAMMA=   4.1361
 27.0288 14.1491  8.2100  5.9811  4.7505  3.4164  3.4164  2.7466  2.4336  2.4336
  1.7751  1.5540  1.1305  1.0341  1.0341  0.9547  0.9547  1.0130  0.9568  0.9568
  0.9275

 Free energy of the ion-electron system (eV)
  ---------------------------------------------------
  alpha Z        PSCENC =         0.02803141
  Ewald energy   TEWEN  =       121.63075842
  -Hartree energ DENC   =      -517.54463029
  -exchange      EXHF   =         0.00000000
  -V(xc)+E(xc)   XCENC  =        33.71632747
  PAW double counting   =       568.53167822     -570.31658269
  entropy T*S    EENTRO =        -0.00000000
  eigenvalues    EBANDS =      -106.36796938
  atomic energy  EATOM  =       457.26981990
  Solvation  Ediel_sol  =        -1.42711140
  ---------------------------------------------------
  free energy    TOTEN  =       -14.47967834 eV

  energy without entropy =      -14.47967834  energy(sigma->0) =      -14.47967834


--------------------------------------------------------------------------------------------------------




--------------------------------------- Iteration      1(  27)  ---------------------------------------


    POTLOK:  cpu time      2.4672: real time      2.4920
    SETDIJ:  cpu time      0.0891: real time      0.0898
     EDDAV:  cpu time      0.2496: real time      0.2524
       DOS:  cpu time      0.0003: real time      0.0003
    CHARGE:  cpu time      0.0647: real time      0.0659
    MIXING:  cpu time      0.0033: real time      0.0035
    --------------------------------------------
      LOOP:  cpu time      2.8741: real time      2.9039

 eigenvalue-minimisations  :    96
 total energy-change (2. order) :-0.2885197E-05  (-0.9528392E-08)
 number of electron       8.0000001 magnetization 
 augmentation part        0.6945951 magnetization 

 DIPCOR: dipole corrections for dipol
 direction  3 min pos     1,
 dipolmoment           0.000000      0.000000     -0.000001 electrons x Angstroem
 Tr[quadrupol]     -1449.748930

 energy correction for charged system         0.000000 eV
 dipol+quadrupol energy correction           -0.000000 eV
 added-field ion interaction         -0.000000 eV  (added to PSCEN)


 Broyden mixing:
  rms(total) = 0.19083E-04    rms(broyden)= 0.18658E-04
  rms(prec ) = 0.24092E-04
  weight for this iteration     100.00

 eigenvalues of (default mixing * dielectric matrix)
  average eigenvalue GAMMA=   4.2092
 27.4910 14.5546  9.1504  6.6276  5.2711  3.8915  3.3714  3.0137  2.5105  2.5105
  2.2409  1.8760  1.1755  1.1048  0.9550  0.9550  1.0336  1.0336  0.9663  0.9663
  0.9286  0.9738

 Free energy of the ion-electron system (eV)
  ---------------------------------------------------
  alpha Z        PSCENC =         0.02803141
  Ewald energy   TEWEN  =       121.63075842
  -Hartree energ DENC   =      -517.54510252
  -exchange      EXHF   =         0.00000000
  -V(xc)+E(xc)   XCENC  =        33.71635774
  PAW double counting   =       568.53618152     -570.32109749
  entropy T*S    EENTRO =        -0.00000000
  eigenvalues    EBANDS =      -106.36740238
  atomic energy  EATOM  =       457.26981990
  Solvation  Ediel_sol  =        -1.42722782
  ---------------------------------------------------
  free energy    TOTEN  =       -14.47968123 eV

  energy without entropy =      -14.47968123  energy(sigma->0) =      -14.47968123


--------------------------------------------------------------------------------------------------------




--------------------------------------- Iteration      1(  28)  ---------------------------------------


    POTLOK:  cpu time      2.4044: real time      2.4279
    SETDIJ:  cpu time      0.0894: real time      0.0901
     EDDAV:  cpu time      0.2501: real time      0.2528
       DOS:  cpu time      0.0003: real time      0.0003
    CHARGE:  cpu time      0.0647: real time      0.0659
    MIXING:  cpu time      0.0034: real time      0.0035
    --------------------------------------------
      LOOP:  cpu time      2.8124: real time      2.8404

 eigenvalue-minimisations  :    96
 total energy-change (2. order) :-0.1081575E-05  (-0.7341511E-08)
 number of electron       8.0000001 magnetization 
 augmentation part        0.6945981 magnetization 

 DIPCOR: dipole corrections for dipol
 direction  3 min pos     1,
 dipolmoment           0.000000      0.000000     -0.000001 electrons x Angstroem
 Tr[quadrupol]     -1449.748944

 energy correction for charged system         0.000000 eV
 dipol+quadrupol energy correction           -0.000000 eV
 added-field ion interaction         -0.000000 eV  (added to PSCEN)


 Broyden mixing:
  rms(total) = 0.83492E-05    rms(broyden)= 0.73394E-05
  rms(prec ) = 0.10116E-04
  weight for this iteration     100.00
  WARNING: grid for Broyden might be to small

 eigenvalues of (default mixing * dielectric matrix)
  average eigenvalue GAMMA=   4.1735
 27.6170 14.7660  9.5331  6.9834  5.2404  3.9262  3.9262  3.1502  2.5291  2.3620
  2.3620  1.9372  1.5714  1.1149  1.1149  0.9551  0.9551  1.0331  1.0331  1.0175
  0.9697  0.9697  0.9241

 Free energy of the ion-electron system (eV)
  ---------------------------------------------------
  alpha Z        PSCENC =         0.02803141
  Ewald energy   TEWEN  =       121.63075842
  -Hartree energ DENC   =      -517.54509015
  -exchange      EXHF   =         0.00000000
  -V(xc)+E(xc)   XCENC  =        33.71634854
  PAW double counting   =       568.53611791     -570.32103584
  entropy T*S    EENTRO =        -0.00000000
  eigenvalues    EBANDS =      -106.36738149
  atomic energy  EATOM  =       457.26981990
  Solvation  Ediel_sol  =        -1.42725101
  ---------------------------------------------------
  free energy    TOTEN  =       -14.47968231 eV

  energy without entropy =      -14.47968231  energy(sigma->0) =      -14.47968231


--------------------------------------------------------------------------------------------------------




--------------------------------------- Iteration      1(  29)  ---------------------------------------


    POTLOK:  cpu time      2.3148: real time      2.3396
    SETDIJ:  cpu time      0.0884: real time      0.0890
     EDDAV:  cpu time      0.2533: real time      0.2561
       DOS:  cpu time      0.0003: real time      0.0003
    --------------------------------------------
      LOOP:  cpu time      2.6567: real time      2.6849

 eigenvalue-minimisations  :    96
 total energy-change (2. order) :-0.3046819E-06  (-0.1619266E-08)
 number of electron       8.0000001 magnetization 
 augmentation part        0.6945981 magnetization 

 DIPCOR: dipole corrections for dipol
 direction  3 min pos     1,
 dipolmoment           0.000000      0.000000     -0.000001 electrons x Angstroem
 Tr[quadrupol]     -1449.748945

 energy correction for charged system         0.000000 eV
 dipol+quadrupol energy correction           -0.000000 eV
 added-field ion interaction         -0.000000 eV  (added to PSCEN)


 Free energy of the ion-electron system (eV)
  ---------------------------------------------------
  alpha Z        PSCENC =         0.02803141
  Ewald energy   TEWEN  =       121.63075842
  -Hartree energ DENC   =      -517.54538816
  -exchange      EXHF   =         0.00000000
  -V(xc)+E(xc)   XCENC  =        33.71636585
  PAW double counting   =       568.53734753     -570.32226836
  entropy T*S    EENTRO =        -0.00000000
  eigenvalues    EBANDS =      -106.36713502
  atomic energy  EATOM  =       457.26981990
  Solvation  Ediel_sol  =        -1.42721418
  ---------------------------------------------------
  free energy    TOTEN  =       -14.47968261 eV

  energy without entropy =      -14.47968261  energy(sigma->0) =      -14.47968261


--------------------------------------------------------------------------------------------------------




 average (electrostatic) potential at core
  the test charge radii are     0.5201  0.7215
  (the norm of the test charge is              1.0000)
       1 -44.2022       2 -44.1953       3 -80.2724



 E-fermi :  -6.3700     XC(G=0):  -0.1051     alpha+bet : -0.0163

 Fermi energy:        -6.3699886737

 k-point     1 :       0.0000    0.0000    0.0000
  band No.  band energies     occupation 
      1     -24.8649      2.00000
      2     -12.4702      2.00000
      3      -8.9498      2.00000
      4      -6.8987      2.00000
      5      -0.4377      0.00000
      6       0.0436      0.00000
      7       0.2986      0.00000
      8       0.3079      0.00000
      9       0.3137      0.00000
     10       0.3386      0.00000
     11       0.3410      0.00000
     12       0.5043      0.00000
     13       0.5992      0.00000
     14       0.6196      0.00000
     15       0.6224      0.00000
     16       0.6955      0.00000
     17       0.7065      0.00000
     18       0.7145      0.00000
     19       0.7182      0.00000
     20       0.7231      0.00000
     21       0.7279      0.00000
     22       0.7346      0.00000
     23       0.7367      0.00000
     24       0.9866      0.00000
     25       1.0176      0.00000
     26       1.0312      0.00000
     27       1.0345      0.00000
     28       1.0753      0.00000
     29       1.0804      0.00000
     30       1.0932      0.00000
     31       1.1137      0.00000
     32       1.3524      0.00000


--------------------------------------------------------------------------------------------------------


 soft charge-density along one line, spin component           1
         0         1         2         3         4         5         6         7         8         9
 total charge-density along one line

 pseudopotential strength for first ion, spin component:           1
 -2.371  -4.093  -0.024   0.000   0.003
 -4.093  -6.981  -0.044   0.000   0.005
 -0.024  -0.044  -0.284  -0.000  -0.005
  0.000   0.000  -0.000  -0.328  -0.000
  0.003   0.005  -0.005  -0.000  -0.326
 total augmentation occupancy for first ion, spin component:           1
  3.912  -0.857   0.722  -0.000  -0.110
 -0.857   0.234  -0.152   0.000   0.028
  0.722  -0.152   0.134  -0.000  -0.018
 -0.000   0.000  -0.000   0.037  -0.000
 -0.110   0.028  -0.018  -0.000   0.027


------------------------ aborting loop because EDIFF is reached ----------------------------------------


    CHARGE:  cpu time      0.1409: real time      0.1419
    FORLOC:  cpu time      0.0192: real time      0.0193
    FORNL :  cpu time      0.4741: real time      0.4991
    STRESS:  cpu time      0.8496: real time      0.8634
    FORCOR:  cpu time      0.0557: real time      0.0578
    FORHAR:  cpu time      0.0150: real time      0.0172
    MIXING:  cpu time      0.0031: real time      0.0033
    OFIELD:  cpu time      0.0003: real time      0.0003

 ---------------------------------------------------------------------------------------------

         DFTD3 V3.0 Rev 1        
 IVDW         = 11
 DF rpbe      
 parameters
 VDW_S6       =    1.0000
 VDW_S8       =    0.5140
 VDW_SR       =    0.8720
 rs18     =    1.0000
 alpha6   =   14.0000
 alpha8   =   16.0000
 k1-k3    =   16.0000    1.3333   -4.0000
 VDW_RADIUS   =   50.2022 A
 VDW_CNRADIUS =   21.1671 A
 Edisp (eV)   -0.00134

 E6    (eV) :    -0.0013
 E8    (eV) :    -0.0001
 % E8        :  5.25
    FORVDW:  cpu time      0.0176: real time      0.0311

  FORCE on cell =-STRESS in cart. coord.  units (eV):
  Direction    XX          YY          ZZ          XY          YZ          ZX
  --------------------------------------------------------------------------------------
  Alpha Z     0.02803     0.02803     0.02803
  Ewald      57.31845    86.12887   -21.81653    22.22265    -0.00007     0.00016
  Hartree   175.45602   180.00808   162.08069     3.51239    -0.00001     0.00003
  E(xc)     -36.39792   -36.26285   -36.83768     0.10474    -0.00000     0.00000
  Local    -318.70627  -343.75855  -249.56238   -19.32970     0.00006    -0.00014
  n-local   -30.91407   -30.50436   -30.78895     0.32039     0.00000     0.00000
  augment     6.57852     6.07896     8.06666    -0.38617     0.00000    -0.00000
  Kinetic   146.00080   138.40563   167.19995    -5.88276     0.00002    -0.00004
  Fock        0.00000     0.00000     0.00000     0.00000     0.00000     0.00000
  vdW         0.00263     0.00798    -0.00000     0.00415     0.00000     0.00000
  -------------------------------------------------------------------------------------
  Total      -0.63380     0.13179    -1.63020     0.56569     0.00000     0.00001
  in kB      -0.12693     0.02639    -0.32648     0.11329     0.00000     0.00000
  external pressure =       -0.14 kB  Pullay stress =        0.00 kB


 VOLUME and BASIS-vectors are now :
 -----------------------------------------------------------------------------
  energy-cutoff  :      400.00
  volume of cell :     8000.00
      direct lattice vectors                 reciprocal lattice vectors
    20.000000000  0.000000000  0.000000000     0.050000000  0.000000000  0.000000000
     0.000000000 20.000000000  0.000000000     0.000000000  0.050000000  0.000000000
     0.000000000  0.000000000 20.000000000     0.000000000  0.000000000  0.050000000

  length of vectors
    20.000000000 20.000000000 20.000000000     0.050000000  0.050000000  0.050000000


 FORCES acting on ions
    electron-ion (+dipol)            ewald-force                    non-local-force                 convergence-correction
 -----------------------------------------------------------------------------------------------
   -.114E+02 0.881E+02 -.131E-03   0.119E+02 -.954E+02 0.140E-03   -.115E+01 0.840E+01 -.113E-04   -.132E-04 0.396E-04 -.319E-07
   -.801E+02 -.382E+02 -.146E-03   0.865E+02 0.418E+02 0.157E-03   -.767E+01 -.359E+01 -.144E-04   -.419E-04 -.762E-05 -.340E-07
   0.525E+02 -.286E+02 0.163E-03   -.984E+02 0.536E+02 -.297E-03   0.401E+02 -.219E+02 0.116E-03   -.752E-04 0.102E-03 -.214E-06
 -----------------------------------------------------------------------------------------------
   -.313E+02 0.171E+02 -.893E-04   0.000E+00 0.711E-14 0.401E-17   0.313E+02 -.171E+02 0.907E-04   -.130E-03 0.134E-03 -.280E-06


 POSITION                                       TOTAL-FORCE (eV/Angst)
 -----------------------------------------------------------------------------------
      9.80764      9.62371     10.00000         0.000252     -0.070797      0.000001
     10.54233     10.97252     10.00000         0.044349      0.036274     -0.000000
      9.65004     10.58377     10.00000        -0.044602      0.034523     -0.000000
 -----------------------------------------------------------------------------------
    total drift:                               -0.008812     -0.011059      0.000001


--------------------------------------------------------------------------------------------------------



  FREE ENERGIE OF THE ION-ELECTRON SYSTEM (eV)
  ---------------------------------------------------
  free  energy   TOTEN  =       -14.48102411 eV

  energy  without entropy=      -14.48102411  energy(sigma->0) =      -14.48102411



--------------------------------------------------------------------------------------------------------


    POTLOK:  cpu time      2.3815: real time      2.4076


--------------------------------------------------------------------------------------------------------


 stress matrix after NEB project (eV)
     -0.63380      0.56568      0.00001
      0.56569      0.13179      0.00000
      0.00001      0.00000     -1.63020
  FORCES: max atom, RMS     0.070798    0.061850
  FORCE total and by dimension    0.107127    0.070797
  Stress total and by dimension    1.927853    1.630200


--------------------------------------------------------------------------------------------------------


    WAVPRE:  cpu time      0.0111: real time      0.0187
    FEWALD:  cpu time      0.0003: real time      0.0003

 real space projection operators:
  total allocation   :        154.05 KBytes
  max/ min on nodes  :         39.50         36.57

    ORTHCH:  cpu time      0.0205: real time      0.0208
     LOOP+:  cpu time     93.7621: real time     96.4687


--------------------------------------- Ionic step        2  -------------------------------------------




--------------------------------------- Iteration      2(   1)  ---------------------------------------


    POTLOK:  cpu time      3.0999: real time      3.1316
    SETDIJ:  cpu time      0.0888: real time      0.0894
     EDDAV:  cpu time      0.1747: real time      0.1778
       DOS:  cpu time      0.0009: real time      0.0009
    CHARGE:  cpu time      0.0653: real time      0.0665
    MIXING:  cpu time      0.0014: real time      0.0015
    --------------------------------------------
      LOOP:  cpu time      3.4311: real time      3.4679

 eigenvalue-minimisations  :    64
 total energy-change (2. order) :-0.1165330E-03  (-0.2250023E-02)
 number of electron       8.0000001 magnetization 
 augmentation part        0.6928077 magnetization 

 DIPCOR: dipole corrections for dipol
 direction  3 min pos     1,
 dipolmoment           0.000000      0.000000     -0.000001 electrons x Angstroem
 Tr[quadrupol]     -1449.404012

 energy correction for charged system         0.000000 eV
 dipol+quadrupol energy correction           -0.000000 eV
 added-field ion interaction         -0.000000 eV  (added to PSCEN)


 Broyden mixing:
  rms(total) = 0.58088E-02    rms(broyden)= 0.57933E-02
  rms(prec ) = 0.61329E-02
  weight for this iteration     100.00

 Free energy of the ion-electron system (eV)
  ---------------------------------------------------
  alpha Z        PSCENC =         0.02803141
  Ewald energy   TEWEN  =       121.10125615
  -Hartree energ DENC   =      -517.28973983
  -exchange      EXHF   =         0.00000000
  -V(xc)+E(xc)   XCENC  =        33.70408886
  PAW double counting   =       568.53620097     -570.32111689
  entropy T*S    EENTRO =        -0.00000000
  eigenvalues    EBANDS =      -106.10258810
  atomic energy  EATOM  =       457.26981990
  Solvation  Ediel_sol  =        -1.40575131
  ---------------------------------------------------
  free energy    TOTEN  =       -14.47979884 eV

  energy without entropy =      -14.47979884  energy(sigma->0) =      -14.47979884


--------------------------------------------------------------------------------------------------------




--------------------------------------- Iteration      2(   2)  ---------------------------------------


    POTLOK:  cpu time      3.5594: real time      3.5919
    SETDIJ:  cpu time      0.0887: real time      0.0894
     EDDAV:  cpu time      0.2497: real time      0.2527
       DOS:  cpu time      0.0008: real time      0.0008
    CHARGE:  cpu time      0.0645: real time      0.0657
    MIXING:  cpu time      0.0014: real time      0.0014
    --------------------------------------------
      LOOP:  cpu time      3.9645: real time      4.0019

 eigenvalue-minimisations  :    96
 total energy-change (2. order) :-0.1495398E-04  (-0.6513224E-04)
 number of electron       8.0000001 magnetization 
 augmentation part        0.6932750 magnetization 

 DIPCOR: dipole corrections for dipol
 direction  3 min pos     1,
 dipolmoment           0.000000      0.000000     -0.000001 electrons x Angstroem
 Tr[quadrupol]     -1449.404089

 energy correction for charged system         0.000000 eV
 dipol+quadrupol energy correction           -0.000000 eV
 added-field ion interaction         -0.000000 eV  (added to PSCEN)


 Broyden mixing:
  rms(total) = 0.21317E-02    rms(broyden)= 0.21231E-02
  rms(prec ) = 0.22103E-02
  weight for this iteration     100.00

 eigenvalues of (default mixing * dielectric matrix)
  average eigenvalue GAMMA=   1.0717
  1.0717

 Free energy of the ion-electron system (eV)
  ---------------------------------------------------
  alpha Z        PSCENC =         0.02803141
  Ewald energy   TEWEN  =       121.10125615
  -Hartree energ DENC   =      -517.15893401
  -exchange      EXHF   =         0.00000000
  -V(xc)+E(xc)   XCENC  =        33.69683451
  PAW double counting   =       567.70771938     -569.49090788
  entropy T*S    EENTRO =        -0.00000000
  eigenvalues    EBANDS =      -106.23124286
  atomic energy  EATOM  =       457.26981990
  Solvation  Ediel_sol  =        -1.40239041
  ---------------------------------------------------
  free energy    TOTEN  =       -14.47981379 eV

  energy without entropy =      -14.47981379  energy(sigma->0) =      -14.47981379


--------------------------------------------------------------------------------------------------------




--------------------------------------- Iteration      2(   3)  ---------------------------------------


    POTLOK:  cpu time      2.7608: real time      2.7873
    SETDIJ:  cpu time      0.0891: real time      0.0901
     EDDAV:  cpu time      0.3410: real time      0.3451
       DOS:  cpu time      0.0008: real time      0.0008
    CHARGE:  cpu time      0.0641: real time      0.0654
    MIXING:  cpu time      0.0020: real time      0.0020
    --------------------------------------------
      LOOP:  cpu time      3.2578: real time      3.2906

 eigenvalue-minimisations  :   128
 total energy-change (2. order) : 0.4525976E-04  (-0.1733900E-05)
 number of electron       8.0000001 magnetization 
 augmentation part        0.6933012 magnetization 

 DIPCOR: dipole corrections for dipol
 direction  3 min pos     1,
 dipolmoment           0.000000      0.000000     -0.000001 electrons x Angstroem
 Tr[quadrupol]     -1449.404085

 energy correction for charged system         0.000000 eV
 dipol+quadrupol energy correction           -0.000000 eV
 added-field ion interaction         -0.000000 eV  (added to PSCEN)


 Broyden mixing:
  rms(total) = 0.10979E-02    rms(broyden)= 0.10972E-02
  rms(prec ) = 0.11391E-02
  weight for this iteration     100.00

 eigenvalues of (default mixing * dielectric matrix)
  average eigenvalue GAMMA=   1.5632
  1.0437  2.0826

 Free energy of the ion-electron system (eV)
  ---------------------------------------------------
  alpha Z        PSCENC =         0.02803141
  Ewald energy   TEWEN  =       121.10125615
  -Hartree energ DENC   =      -517.14516583
  -exchange      EXHF   =         0.00000000
  -V(xc)+E(xc)   XCENC  =        33.69608802
  PAW double counting   =       567.28317277     -569.06560935
  entropy T*S    EENTRO =        -0.00000000
  eigenvalues    EBANDS =      -106.24402921
  atomic energy  EATOM  =       457.26981990
  Solvation  Ediel_sol  =        -1.40333239
  ---------------------------------------------------
  free energy    TOTEN  =       -14.47976853 eV

  energy without entropy =      -14.47976853  energy(sigma->0) =      -14.47976853


--------------------------------------------------------------------------------------------------------




--------------------------------------- Iteration      2(   4)  ---------------------------------------


    POTLOK:  cpu time      2.8029: real time      2.8309
    SETDIJ:  cpu time      0.0891: real time      0.0897
     EDDAV:  cpu time      0.3417: real time      0.3461
       DOS:  cpu time      0.0007: real time      0.0007
    CHARGE:  cpu time      0.0642: real time      0.0654
    MIXING:  cpu time      0.0016: real time      0.0016
    --------------------------------------------
      LOOP:  cpu time      3.3002: real time      3.3345

 eigenvalue-minimisations  :   128
 total energy-change (2. order) : 0.4235832E-04  (-0.1408751E-05)
 number of electron       8.0000001 magnetization 
 augmentation part        0.6933124 magnetization 

 DIPCOR: dipole corrections for dipol
 direction  3 min pos     1,
 dipolmoment           0.000000      0.000000     -0.000001 electrons x Angstroem
 Tr[quadrupol]     -1449.404001

 energy correction for charged system         0.000000 eV
 dipol+quadrupol energy correction           -0.000000 eV
 added-field ion interaction         -0.000000 eV  (added to PSCEN)


 Broyden mixing:
  rms(total) = 0.18042E-03    rms(broyden)= 0.18000E-03
  rms(prec ) = 0.19548E-03
  weight for this iteration     100.00

 eigenvalues of (default mixing * dielectric matrix)
  average eigenvalue GAMMA=   1.6499
  1.0200  2.2875  1.6423

 Free energy of the ion-electron system (eV)
  ---------------------------------------------------
  alpha Z        PSCENC =         0.02803141
  Ewald energy   TEWEN  =       121.10125615
  -Hartree energ DENC   =      -517.13830502
  -exchange      EXHF   =         0.00000000
  -V(xc)+E(xc)   XCENC  =        33.69568522
  PAW double counting   =       566.82207927     -568.60372490
  entropy T*S    EENTRO =        -0.00000000
  eigenvalues    EBANDS =      -106.24806905
  atomic energy  EATOM  =       457.26981990
  Solvation  Ediel_sol  =        -1.40649916
  ---------------------------------------------------
  free energy    TOTEN  =       -14.47972618 eV

  energy without entropy =      -14.47972618  energy(sigma->0) =      -14.47972618


--------------------------------------------------------------------------------------------------------




--------------------------------------- Iteration      2(   5)  ---------------------------------------


    POTLOK:  cpu time      2.6856: real time      2.7142
    SETDIJ:  cpu time      0.0888: real time      0.0894
     EDDAV:  cpu time      0.2569: real time      0.2857
       DOS:  cpu time      0.0006: real time      0.0127
    CHARGE:  cpu time      0.0512: real time      0.0722
    MIXING:  cpu time      0.0018: real time      0.0018
    --------------------------------------------
      LOOP:  cpu time      3.0848: real time      3.1762

 eigenvalue-minimisations  :    96
 total energy-change (2. order) : 0.1122984E-04  (-0.2315727E-06)
 number of electron       8.0000001 magnetization 
 augmentation part        0.6933058 magnetization 

 DIPCOR: dipole corrections for dipol
 direction  3 min pos     1,
 dipolmoment           0.000000      0.000000     -0.000001 electrons x Angstroem
 Tr[quadrupol]     -1449.403967

 energy correction for charged system         0.000000 eV
 dipol+quadrupol energy correction           -0.000000 eV
 added-field ion interaction         -0.000000 eV  (added to PSCEN)


 Broyden mixing:
  rms(total) = 0.10227E-03    rms(broyden)= 0.10173E-03
  rms(prec ) = 0.11545E-03
  weight for this iteration     100.00

 eigenvalues of (default mixing * dielectric matrix)
  average eigenvalue GAMMA=   1.5709
  0.8781  1.1465  1.8876  2.3714

 Free energy of the ion-electron system (eV)
  ---------------------------------------------------
  alpha Z        PSCENC =         0.02803141
  Ewald energy   TEWEN  =       121.10125615
  -Hartree energ DENC   =      -517.14182751
  -exchange      EXHF   =         0.00000000
  -V(xc)+E(xc)   XCENC  =        33.69587118
  PAW double counting   =       566.74610852     -568.52762485
  entropy T*S    EENTRO =        -0.00000000
  eigenvalues    EBANDS =      -106.24227917
  atomic energy  EATOM  =       457.26981990
  Solvation  Ediel_sol  =        -1.40907058
  ---------------------------------------------------
  free energy    TOTEN  =       -14.47971495 eV

  energy without entropy =      -14.47971495  energy(sigma->0) =      -14.47971495


--------------------------------------------------------------------------------------------------------




--------------------------------------- Iteration      2(   6)  ---------------------------------------


    POTLOK:  cpu time      2.6840: real time      2.7317
    SETDIJ:  cpu time      0.0890: real time      0.0897
     EDDAV:  cpu time      0.3376: real time      0.3418
       DOS:  cpu time      0.0006: real time      0.0006
    CHARGE:  cpu time      0.0649: real time      0.0662
    MIXING:  cpu time      0.0018: real time      0.0018
    --------------------------------------------
      LOOP:  cpu time      3.1779: real time      3.2317

 eigenvalue-minimisations  :   128
 total energy-change (2. order) : 0.2879478E-05  (-0.3721763E-07)
 number of electron       8.0000001 magnetization 
 augmentation part        0.6933189 magnetization 

 DIPCOR: dipole corrections for dipol
 direction  3 min pos     1,
 dipolmoment           0.000000      0.000000     -0.000001 electrons x Angstroem
 Tr[quadrupol]     -1449.403943

 energy correction for charged system         0.000000 eV
 dipol+quadrupol energy correction           -0.000000 eV
 added-field ion interaction         -0.000000 eV  (added to PSCEN)


 Broyden mixing:
  rms(total) = 0.55993E-04    rms(broyden)= 0.55650E-04
  rms(prec ) = 0.71751E-04
  weight for this iteration     100.00

 eigenvalues of (default mixing * dielectric matrix)
  average eigenvalue GAMMA=   1.7707
  2.9384  2.4553  0.9603  1.2496  1.2496

 Free energy of the ion-electron system (eV)
  ---------------------------------------------------
  alpha Z        PSCENC =         0.02803141
  Ewald energy   TEWEN  =       121.10125615
  -Hartree energ DENC   =      -517.14078730
  -exchange      EXHF   =         0.00000000
  -V(xc)+E(xc)   XCENC  =        33.69580709
  PAW double counting   =       566.73071144     -568.51220881
  entropy T*S    EENTRO =        -0.00000000
  eigenvalues    EBANDS =      -106.24215874
  atomic energy  EATOM  =       457.26981990
  Solvation  Ediel_sol  =        -1.41018322
  ---------------------------------------------------
  free energy    TOTEN  =       -14.47971207 eV

  energy without entropy =      -14.47971207  energy(sigma->0) =      -14.47971207


--------------------------------------------------------------------------------------------------------




--------------------------------------- Iteration      2(   7)  ---------------------------------------


    POTLOK:  cpu time      2.6576: real time      2.6844
    SETDIJ:  cpu time      0.0875: real time      0.0881
     EDDAV:  cpu time      0.2544: real time      0.2584
       DOS:  cpu time      0.0006: real time      0.0006
    CHARGE:  cpu time      0.0643: real time      0.0655
    MIXING:  cpu time      0.0018: real time      0.0018
    --------------------------------------------
      LOOP:  cpu time      3.0662: real time      3.0987

 eigenvalue-minimisations  :    96
 total energy-change (2. order) : 0.2889735E-05  (-0.8136735E-07)
 number of electron       8.0000001 magnetization 
 augmentation part        0.6933148 magnetization 

 DIPCOR: dipole corrections for dipol
 direction  3 min pos     1,
 dipolmoment           0.000000      0.000000     -0.000001 electrons x Angstroem
 Tr[quadrupol]     -1449.403891

 energy correction for charged system         0.000000 eV
 dipol+quadrupol energy correction           -0.000000 eV
 added-field ion interaction         -0.000000 eV  (added to PSCEN)


 Broyden mixing:
  rms(total) = 0.46885E-04    rms(broyden)= 0.46401E-04
  rms(prec ) = 0.57620E-04
  weight for this iteration     100.00

 eigenvalues of (default mixing * dielectric matrix)
  average eigenvalue GAMMA=   1.8695
  4.1428  2.4339  1.7910  1.1679  0.9060  0.7758

 Free energy of the ion-electron system (eV)
  ---------------------------------------------------
  alpha Z        PSCENC =         0.02803141
  Ewald energy   TEWEN  =       121.10125615
  -Hartree energ DENC   =      -517.14282302
  -exchange      EXHF   =         0.00000000
  -V(xc)+E(xc)   XCENC  =        33.69590802
  PAW double counting   =       566.73028745     -568.51183985
  entropy T*S    EENTRO =        -0.00000000
  eigenvalues    EBANDS =      -106.23834958
  atomic energy  EATOM  =       457.26981990
  Solvation  Ediel_sol  =        -1.41199966
  ---------------------------------------------------
  free energy    TOTEN  =       -14.47970918 eV

  energy without entropy =      -14.47970918  energy(sigma->0) =      -14.47970918


--------------------------------------------------------------------------------------------------------




--------------------------------------- Iteration      2(   8)  ---------------------------------------


    POTLOK:  cpu time      3.4656: real time      3.4964
    SETDIJ:  cpu time      0.0887: real time      0.0897
     EDDAV:  cpu time      0.4547: real time      0.4585
       DOS:  cpu time      0.0006: real time      0.0006
    --------------------------------------------
      LOOP:  cpu time      4.0096: real time      4.0451

 eigenvalue-minimisations  :    96
 total energy-change (2. order) : 0.8511046E-06  (-0.2144833E-07)
 number of electron       8.0000001 magnetization 
 augmentation part        0.6933148 magnetization 

 DIPCOR: dipole corrections for dipol
 direction  3 min pos     1,
 dipolmoment           0.000000      0.000000     -0.000001 electrons x Angstroem
 Tr[quadrupol]     -1449.403836

 energy correction for charged system         0.000000 eV
 dipol+quadrupol energy correction           -0.000000 eV
 added-field ion interaction         -0.000000 eV  (added to PSCEN)


 Free energy of the ion-electron system (eV)
  ---------------------------------------------------
  alpha Z        PSCENC =         0.02803141
  Ewald energy   TEWEN  =       121.10125615
  -Hartree energ DENC   =      -517.14244164
  -exchange      EXHF   =         0.00000000
  -V(xc)+E(xc)   XCENC  =        33.69588072
  PAW double counting   =       566.73110492     -568.51267638
  entropy T*S    EENTRO =        -0.00000000
  eigenvalues    EBANDS =      -106.23783985
  atomic energy  EATOM  =       457.26981990
  Solvation  Ediel_sol  =        -1.41284357
  ---------------------------------------------------
  free energy    TOTEN  =       -14.47970833 eV

  energy without entropy =      -14.47970833  energy(sigma->0) =      -14.47970833


--------------------------------------------------------------------------------------------------------




 average (electrostatic) potential at core
  the test charge radii are     0.5201  0.7215
  (the norm of the test charge is              1.0000)
       1 -44.1634       2 -44.1662       3 -80.2700



 E-fermi :  -6.3611     XC(G=0):  -0.1016     alpha+bet : -0.0163

 Fermi energy:        -6.3610718733

 k-point     1 :       0.0000    0.0000    0.0000
  band No.  band energies     occupation 
      1     -24.8362      2.00000
      2     -12.4395      2.00000
      3      -8.9497      2.00000
      4      -6.8935      2.00000
      5      -0.4442      0.00000
      6       0.0488      0.00000
      7       0.3021      0.00000
      8       0.3072      0.00000
      9       0.3107      0.00000
     10       0.3444      0.00000
     11       0.3480      0.00000
     12       0.5097      0.00000
     13       0.6080      0.00000
     14       0.6229      0.00000
     15       0.6252      0.00000
     16       0.7103      0.00000
     17       0.7130      0.00000
     18       0.7140      0.00000
     19       0.7167      0.00000
     20       0.7179      0.00000
     21       0.7332      0.00000
     22       0.7348      0.00000
     23       0.7393      0.00000
     24       0.9913      0.00000
     25       1.0249      0.00000
     26       1.0383      0.00000
     27       1.0408      0.00000
     28       1.0849      0.00000
     29       1.0862      0.00000
     30       1.0905      0.00000
     31       1.1068      0.00000
     32       1.3530      0.00000


--------------------------------------------------------------------------------------------------------


 soft charge-density along one line, spin component           1
         0         1         2         3         4         5         6         7         8         9
 total charge-density along one line

 pseudopotential strength for first ion, spin component:           1
 -2.370  -4.093  -0.024   0.000   0.003
 -4.093  -6.980  -0.044   0.000   0.005
 -0.024  -0.044  -0.285  -0.000  -0.005
  0.000   0.000  -0.000  -0.328  -0.000
  0.003   0.005  -0.005  -0.000  -0.326
 total augmentation occupancy for first ion, spin component:           1
  3.895  -0.854   0.713  -0.000  -0.109
 -0.854   0.233  -0.151   0.000   0.027
  0.713  -0.151   0.131  -0.000  -0.018
 -0.000   0.000  -0.000   0.036  -0.000
 -0.109   0.027  -0.018  -0.000   0.027


------------------------ aborting loop because EDIFF is reached ----------------------------------------


    CHARGE:  cpu time      0.0658: real time      0.0666
    FORLOC:  cpu time      0.0018: real time      0.0019
    FORNL :  cpu time      0.3665: real time      0.3710
    STRESS:  cpu time      0.8555: real time      0.8658
    FORCOR:  cpu time      0.0578: real time      0.0583
    FORHAR:  cpu time      0.0149: real time      0.0150
    MIXING:  cpu time      0.0015: real time      0.0015
    OFIELD:  cpu time      0.0000: real time      0.0000

 ---------------------------------------------------------------------------------------------

         DFTD3 V3.0 Rev 1        
 Edisp (eV)   -0.00137

 E6    (eV) :    -0.0013
 E8    (eV) :    -0.0001
 % E8        :  5.25
    FORVDW:  cpu time      0.0084: real time      0.0086

  FORCE on cell =-STRESS in cart. coord.  units (eV):
  Direction    XX          YY          ZZ          XY          YZ          ZX
  --------------------------------------------------------------------------------------
  Alpha Z     0.02803     0.02803     0.02803
  Ewald      57.21042    85.70750   -21.81667    22.05204    -0.00008     0.00016
  Hartree   175.33642   179.86746   161.93788     3.49141    -0.00001     0.00003
  E(xc)     -36.37556   -36.24134   -36.81619     0.10400    -0.00000     0.00000
  Local    -318.50816  -343.35510  -249.37447   -19.19740     0.00007    -0.00014
  n-local   -30.85231   -30.42984   -30.75267     0.32208     0.00000    -0.00000
  augment     6.57052     6.07606     8.05855    -0.38301     0.00000    -0.00000
  Kinetic   145.86243   138.30863   167.10443    -5.84597     0.00002    -0.00005
  Fock        0.00000     0.00000     0.00000     0.00000     0.00000     0.00000
  vdW         0.00267     0.00813    -0.00000     0.00422     0.00000     0.00000
  -------------------------------------------------------------------------------------
  Total      -0.72553    -0.03048    -1.63111     0.54736     0.00000     0.00000
  in kB      -0.14530    -0.00610    -0.32667     0.10962     0.00000     0.00000
  external pressure =       -0.16 kB  Pullay stress =        0.00 kB


 VOLUME and BASIS-vectors are now :
 -----------------------------------------------------------------------------
  energy-cutoff  :      400.00
  volume of cell :     8000.00
      direct lattice vectors                 reciprocal lattice vectors
    20.000000000  0.000000000  0.000000000     0.050000000  0.000000000  0.000000000
     0.000000000 20.000000000  0.000000000     0.000000000  0.050000000  0.000000000
     0.000000000  0.000000000 20.000000000     0.000000000  0.000000000  0.050000000

  length of vectors
    20.000000000 20.000000000 20.000000000     0.050000000  0.050000000  0.050000000


 FORCES acting on ions
    electron-ion (+dipol)            ewald-force                    non-local-force                 convergence-correction
 -----------------------------------------------------------------------------------------------
   -.114E+02 0.877E+02 -.133E-03   0.119E+02 -.948E+02 0.142E-03   -.114E+01 0.830E+01 -.116E-04   0.785E-04 -.355E-04 -.319E-07
   -.799E+02 -.380E+02 -.145E-03   0.861E+02 0.415E+02 0.156E-03   -.761E+01 -.356E+01 -.148E-04   0.533E-04 -.119E-03 -.273E-07
   0.523E+02 -.284E+02 0.163E-03   -.980E+02 0.533E+02 -.298E-03   0.401E+02 -.218E+02 0.117E-03   0.104E-02 -.111E-02 -.755E-06
 -----------------------------------------------------------------------------------------------
   -.313E+02 0.171E+02 -.914E-04   0.000E+00 0.000E+00 0.412E-17   0.313E+02 -.171E+02 0.911E-04   0.117E-02 -.127E-02 -.815E-06


 POSITION                                       TOTAL-FORCE (eV/Angst)
 -----------------------------------------------------------------------------------
      9.80765      9.62166     10.00000        -0.023019      0.079208      0.000001
     10.54361     10.97357     10.00000        -0.056548     -0.008902     -0.000001
      9.64874     10.58477     10.00000         0.079567     -0.070306     -0.000001
 -----------------------------------------------------------------------------------
    total drift:                               -0.009381     -0.011833     -0.000001


--------------------------------------------------------------------------------------------------------



  FREE ENERGIE OF THE ION-ELECTRON SYSTEM (eV)
  ---------------------------------------------------
  free  energy   TOTEN  =       -14.48107374 eV

  energy  without entropy=      -14.48107374  energy(sigma->0) =      -14.48107374

 d Force =-0.4260956E-04[-0.417E-03, 0.332E-03]  d Energy = 0.4963015E-04-0.922E-04
 d Force = 0.5295042E+00[ 0.528E+00, 0.531E+00]  d Ewald  = 0.5295023E+00 0.197E-05


--------------------------------------------------------------------------------------------------------


    POTLOK:  cpu time      2.5871: real time      2.6122


--------------------------------------------------------------------------------------------------------


 stress matrix after NEB project (eV)
     -0.72553      0.54735      0.00000
      0.54736     -0.03048      0.00000
      0.00000      0.00000     -1.63111
  FORCES: max atom, RMS     0.106178    0.084369
  FORCE total and by dimension    0.146132    0.079567
  Stress total and by dimension    1.946033    1.631111
 Steepest descent step on ions:
 trial-energy change:   -0.000050  1 .order    0.000043   -0.000332    0.000417
  (g-gl).g = 0.332E-03      g.g   = 0.332E-03  gl.gl    = 0.000E+00
 g(Force)  = 0.332E-03   g(Stress)= 0.000E+00 ortho     = 0.000E+00
 gamma     =   0.00000
 trial     =   1.00000
 opt step  =   0.61754  (harmonic =   0.44316) maximal distance =0.00079274
 next E    =   -14.481148   (d E  =  -0.00012)


--------------------------------------------------------------------------------------------------------


    WAVPRE:  cpu time      0.0098: real time      0.0112
    FEWALD:  cpu time      0.0003: real time      0.0003

 real space projection operators:
  total allocation   :        154.05 KBytes
  max/ min on nodes  :         39.50         36.57

    ORTHCH:  cpu time      0.0209: real time      0.0211
     LOOP+:  cpu time     31.3755: real time     31.7742


--------------------------------------- Ionic step        3  -------------------------------------------




--------------------------------------- Iteration      3(   1)  ---------------------------------------


    POTLOK:  cpu time      3.7331: real time      3.7675
    SETDIJ:  cpu time      0.0893: real time      0.0900
     EDDAV:  cpu time      0.1756: real time      0.1776
       DOS:  cpu time      0.0006: real time      0.0006
    CHARGE:  cpu time      0.0643: real time      0.0655
    MIXING:  cpu time      0.0014: real time      0.0014
    --------------------------------------------
      LOOP:  cpu time      4.0644: real time      4.1026

 eigenvalue-minimisations  :    64
 total energy-change (2. order) :-0.5397727E-04  (-0.3292197E-03)
 number of electron       8.0000001 magnetization 
 augmentation part        0.6940047 magnetization 

 DIPCOR: dipole corrections for dipol
 direction  3 min pos     1,
 dipolmoment           0.000000      0.000000     -0.000001 electrons x Angstroem
 Tr[quadrupol]     -1449.535678

 energy correction for charged system         0.000000 eV
 dipol+quadrupol energy correction           -0.000000 eV
 added-field ion interaction         -0.000000 eV  (added to PSCEN)


 Broyden mixing:
  rms(total) = 0.22177E-02    rms(broyden)= 0.22118E-02
  rms(prec ) = 0.23412E-02
  weight for this iteration     100.00

 Free energy of the ion-electron system (eV)
  ---------------------------------------------------
  alpha Z        PSCENC =         0.02803141
  Ewald energy   TEWEN  =       121.30342455
  -Hartree energ DENC   =      -517.23980492
  -exchange      EXHF   =         0.00000000
  -V(xc)+E(xc)   XCENC  =        33.70055049
  PAW double counting   =       566.73345426     -568.51501959
  entropy T*S    EENTRO =        -0.00000000
  eigenvalues    EBANDS =      -106.33877360
  atomic energy  EATOM  =       457.26981990
  Solvation  Ediel_sol  =        -1.42144566
  ---------------------------------------------------
  free energy    TOTEN  =       -14.47976315 eV

  energy without entropy =      -14.47976315  energy(sigma->0) =      -14.47976315


--------------------------------------------------------------------------------------------------------




--------------------------------------- Iteration      3(   2)  ---------------------------------------


    POTLOK:  cpu time      2.6819: real time      2.7084
    SETDIJ:  cpu time      0.0891: real time      0.0897
     EDDAV:  cpu time      0.3379: real time      0.3417
       DOS:  cpu time      0.0008: real time      0.0007
    CHARGE:  cpu time      0.0642: real time      0.0654
    MIXING:  cpu time      0.0016: real time      0.0016
    --------------------------------------------
      LOOP:  cpu time      3.1753: real time      3.2076

 eigenvalue-minimisations  :   128
 total energy-change (2. order) : 0.2074334E-04  (-0.9669671E-05)
 number of electron       8.0000001 magnetization 
 augmentation part        0.6938269 magnetization 

 DIPCOR: dipole corrections for dipol
 direction  3 min pos     1,
 dipolmoment           0.000000      0.000000     -0.000001 electrons x Angstroem
 Tr[quadrupol]     -1449.535616

 energy correction for charged system         0.000000 eV
 dipol+quadrupol energy correction           -0.000000 eV
 added-field ion interaction         -0.000000 eV  (added to PSCEN)


 Broyden mixing:
  rms(total) = 0.81440E-03    rms(broyden)= 0.81128E-03
  rms(prec ) = 0.84443E-03
  weight for this iteration     100.00

 eigenvalues of (default mixing * dielectric matrix)
  average eigenvalue GAMMA=   1.0738
  1.0738

 Free energy of the ion-electron system (eV)
  ---------------------------------------------------
  alpha Z        PSCENC =         0.02803141
  Ewald energy   TEWEN  =       121.30342455
  -Hartree energ DENC   =      -517.28972497
  -exchange      EXHF   =         0.00000000
  -V(xc)+E(xc)   XCENC  =        33.70332129
  PAW double counting   =       567.04827648     -568.83049751
  entropy T*S    EENTRO =        -0.00000000
  eigenvalues    EBANDS =      -106.28977294
  atomic energy  EATOM  =       457.26981990
  Solvation  Ediel_sol  =        -1.42262062
  ---------------------------------------------------
  free energy    TOTEN  =       -14.47974241 eV

  energy without entropy =      -14.47974241  energy(sigma->0) =      -14.47974241


--------------------------------------------------------------------------------------------------------




--------------------------------------- Iteration      3(   3)  ---------------------------------------


    POTLOK:  cpu time      2.6382: real time      2.6645
    SETDIJ:  cpu time      0.0885: real time      0.0891
     EDDAV:  cpu time      0.3371: real time      0.3408
       DOS:  cpu time      0.0003: real time      0.0003
    CHARGE:  cpu time      0.0643: real time      0.0655
    MIXING:  cpu time      0.0016: real time      0.0016
    --------------------------------------------
      LOOP:  cpu time      3.1300: real time      3.1617

 eigenvalue-minimisations  :   128
 total energy-change (2. order) :-0.1679224E-04  (-0.1822484E-06)
 number of electron       8.0000001 magnetization 
 augmentation part        0.6938114 magnetization 

 DIPCOR: dipole corrections for dipol
 direction  3 min pos     1,
 dipolmoment           0.000000      0.000000     -0.000001 electrons x Angstroem
 Tr[quadrupol]     -1449.535584

 energy correction for charged system         0.000000 eV
 dipol+quadrupol energy correction           -0.000000 eV
 added-field ion interaction         -0.000000 eV  (added to PSCEN)


 Broyden mixing:
  rms(total) = 0.41721E-03    rms(broyden)= 0.41691E-03
  rms(prec ) = 0.43263E-03
  weight for this iteration     100.00

 eigenvalues of (default mixing * dielectric matrix)
  average eigenvalue GAMMA=   1.5516
  1.0545  2.0486

 Free energy of the ion-electron system (eV)
  ---------------------------------------------------
  alpha Z        PSCENC =         0.02803141
  Ewald energy   TEWEN  =       121.30342455
  -Hartree energ DENC   =      -517.29510760
  -exchange      EXHF   =         0.00000000
  -V(xc)+E(xc)   XCENC  =        33.70361322
  PAW double counting   =       567.21079258     -568.99329893
  entropy T*S    EENTRO =        -0.00000000
  eigenvalues    EBANDS =      -106.28484878
  atomic energy  EATOM  =       457.26981990
  Solvation  Ediel_sol  =        -1.42218555
  ---------------------------------------------------
  free energy    TOTEN  =       -14.47975920 eV

  energy without entropy =      -14.47975920  energy(sigma->0) =      -14.47975920


--------------------------------------------------------------------------------------------------------




--------------------------------------- Iteration      3(   4)  ---------------------------------------


    POTLOK:  cpu time      2.6597: real time      2.6886
    SETDIJ:  cpu time      0.0887: real time      0.0893
     EDDAV:  cpu time      0.3365: real time      0.3403
       DOS:  cpu time      0.0006: real time      0.0006
    CHARGE:  cpu time      0.0639: real time      0.0651
    MIXING:  cpu time      0.0018: real time      0.0019
    --------------------------------------------
      LOOP:  cpu time      3.1513: real time      3.1858

 eigenvalue-minimisations  :   128
 total energy-change (2. order) :-0.2313981E-04  (-0.1738876E-06)
 number of electron       8.0000001 magnetization 
 augmentation part        0.6938147 magnetization 

 DIPCOR: dipole corrections for dipol
 direction  3 min pos     1,
 dipolmoment           0.000000      0.000000     -0.000001 electrons x Angstroem
 Tr[quadrupol]     -1449.535550

 energy correction for charged system         0.000000 eV
 dipol+quadrupol energy correction           -0.000000 eV
 added-field ion interaction         -0.000000 eV  (added to PSCEN)


 Broyden mixing:
  rms(total) = 0.65869E-04    rms(broyden)= 0.65634E-04
  rms(prec ) = 0.70013E-04
  weight for this iteration     100.00

 eigenvalues of (default mixing * dielectric matrix)
  average eigenvalue GAMMA=   1.5822
  2.3258  1.0629  1.3578

 Free energy of the ion-electron system (eV)
  ---------------------------------------------------
  alpha Z        PSCENC =         0.02803141
  Ewald energy   TEWEN  =       121.30342455
  -Hartree energ DENC   =      -517.29688534
  -exchange      EXHF   =         0.00000000
  -V(xc)+E(xc)   XCENC  =        33.70371837
  PAW double counting   =       567.38148314     -569.16426013
  entropy T*S    EENTRO =        -0.00000000
  eigenvalues    EBANDS =      -106.28413851
  atomic energy  EATOM  =       457.26981990
  Solvation  Ediel_sol  =        -1.42097573
  ---------------------------------------------------
  free energy    TOTEN  =       -14.47978234 eV

  energy without entropy =      -14.47978234  energy(sigma->0) =      -14.47978234


--------------------------------------------------------------------------------------------------------




--------------------------------------- Iteration      3(   5)  ---------------------------------------


    POTLOK:  cpu time      2.7244: real time      2.8272
    SETDIJ:  cpu time      0.0885: real time      0.0894
     EDDAV:  cpu time      0.3465: real time      0.3501
       DOS:  cpu time      0.0007: real time      0.0007
    CHARGE:  cpu time      0.0638: real time      0.0649
    MIXING:  cpu time      0.0017: real time      0.0017
    --------------------------------------------
      LOOP:  cpu time      3.2256: real time      3.3341

 eigenvalue-minimisations  :   128
 total energy-change (2. order) :-0.4638370E-05  (-0.2432554E-07)
 number of electron       8.0000001 magnetization 
 augmentation part        0.6938099 magnetization 

 DIPCOR: dipole corrections for dipol
 direction  3 min pos     1,
 dipolmoment           0.000000      0.000000     -0.000001 electrons x Angstroem
 Tr[quadrupol]     -1449.535509

 energy correction for charged system         0.000000 eV
 dipol+quadrupol energy correction           -0.000000 eV
 added-field ion interaction         -0.000000 eV  (added to PSCEN)


 Broyden mixing:
  rms(total) = 0.37743E-04    rms(broyden)= 0.37401E-04
  rms(prec ) = 0.41674E-04
  weight for this iteration     100.00

 eigenvalues of (default mixing * dielectric matrix)
  average eigenvalue GAMMA=   1.5696
  2.3807  2.0039  1.0734  0.8203

 Free energy of the ion-electron system (eV)
  ---------------------------------------------------
  alpha Z        PSCENC =         0.02803141
  Ewald energy   TEWEN  =       121.30342455
  -Hartree energ DENC   =      -517.29683904
  -exchange      EXHF   =         0.00000000
  -V(xc)+E(xc)   XCENC  =        33.70372150
  PAW double counting   =       567.41526414     -569.19811049
  entropy T*S    EENTRO =        -0.00000000
  eigenvalues    EBANDS =      -106.28498221
  atomic energy  EATOM  =       457.26981990
  Solvation  Ediel_sol  =        -1.42011675
  ---------------------------------------------------
  free energy    TOTEN  =       -14.47978698 eV

  energy without entropy =      -14.47978698  energy(sigma->0) =      -14.47978698


--------------------------------------------------------------------------------------------------------




--------------------------------------- Iteration      3(   6)  ---------------------------------------


    POTLOK:  cpu time      2.5080: real time      2.5333
    SETDIJ:  cpu time      0.0879: real time      0.0889
     EDDAV:  cpu time      0.3407: real time      0.3442
       DOS:  cpu time      0.0004: real time      0.0005
    --------------------------------------------
      LOOP:  cpu time      2.9369: real time      2.9668

 eigenvalue-minimisations  :   128
 total energy-change (2. order) :-0.9700787E-06  (-0.6144159E-08)
 number of electron       8.0000001 magnetization 
 augmentation part        0.6938099 magnetization 

 DIPCOR: dipole corrections for dipol
 direction  3 min pos     1,
 dipolmoment           0.000000      0.000000     -0.000001 electrons x Angstroem
 Tr[quadrupol]     -1449.535471

 energy correction for charged system         0.000000 eV
 dipol+quadrupol energy correction           -0.000000 eV
 added-field ion interaction         -0.000000 eV  (added to PSCEN)


 Free energy of the ion-electron system (eV)
  ---------------------------------------------------
  alpha Z        PSCENC =         0.02803141
  Ewald energy   TEWEN  =       121.30342455
  -Hartree energ DENC   =      -517.29665082
  -exchange      EXHF   =         0.00000000
  -V(xc)+E(xc)   XCENC  =        33.70371570
  PAW double counting   =       567.42081209     -569.20366053
  entropy T*S    EENTRO =        -0.00000000
  eigenvalues    EBANDS =      -106.28570043
  atomic energy  EATOM  =       457.26981990
  Solvation  Ediel_sol  =        -1.41957983
  ---------------------------------------------------
  free energy    TOTEN  =       -14.47978795 eV

  energy without entropy =      -14.47978795  energy(sigma->0) =      -14.47978795


--------------------------------------------------------------------------------------------------------




 average (electrostatic) potential at core
  the test charge radii are     0.5201  0.7215
  (the norm of the test charge is              1.0000)
       1 -44.1780       2 -44.1771       3 -80.2707



 E-fermi :  -6.3672     XC(G=0):  -0.1038     alpha+bet : -0.0163

 Fermi energy:        -6.3672047450

 k-point     1 :       0.0000    0.0000    0.0000
  band No.  band energies     occupation 
      1     -24.8470      2.00000
      2     -12.4510      2.00000
      3      -8.9496      2.00000
      4      -6.8953      2.00000
      5      -0.4414      0.00000
      6       0.0473      0.00000
      7       0.2969      0.00000
      8       0.3073      0.00000
      9       0.3091      0.00000
     10       0.3419      0.00000
     11       0.3437      0.00000
     12       0.5108      0.00000
     13       0.6042      0.00000
     14       0.6237      0.00000
     15       0.6270      0.00000
     16       0.7078      0.00000
     17       0.7111      0.00000
     18       0.7126      0.00000
     19       0.7132      0.00000
     20       0.7154      0.00000
     21       0.7292      0.00000
     22       0.7311      0.00000
     23       0.7336      0.00000
     24       0.9928      0.00000
     25       1.0238      0.00000
     26       1.0380      0.00000
     27       1.0400      0.00000
     28       1.0808      0.00000
     29       1.0829      0.00000
     30       1.0904      0.00000
     31       1.1026      0.00000
     32       1.3488      0.00000


--------------------------------------------------------------------------------------------------------


 soft charge-density along one line, spin component           1
         0         1         2         3         4         5         6         7         8         9
 total charge-density along one line

 pseudopotential strength for first ion, spin component:           1
 -2.370  -4.093  -0.024   0.000   0.003
 -4.093  -6.980  -0.044   0.000   0.005
 -0.024  -0.044  -0.284  -0.000  -0.005
  0.000   0.000  -0.000  -0.328  -0.000
  0.003   0.005  -0.005  -0.000  -0.326
 total augmentation occupancy for first ion, spin component:           1
  3.902  -0.855   0.717  -0.000  -0.109
 -0.855   0.233  -0.152   0.000   0.027
  0.717  -0.152   0.132  -0.000  -0.018
 -0.000   0.000  -0.000   0.037  -0.000
 -0.109   0.027  -0.018  -0.000   0.027


------------------------ aborting loop because EDIFF is reached ----------------------------------------


    CHARGE:  cpu time      0.0651: real time      0.0659
    FORLOC:  cpu time      0.0019: real time      0.0019
    FORNL :  cpu time      0.2709: real time      0.2741
    STRESS:  cpu time      0.8527: real time      0.8628
    FORCOR:  cpu time      0.0565: real time      0.0570
    FORHAR:  cpu time      0.0154: real time      0.0155
    MIXING:  cpu time      0.0013: real time      0.0013
    OFIELD:  cpu time      0.0000: real time      0.0000

 ---------------------------------------------------------------------------------------------

         DFTD3 V3.0 Rev 1        
 Edisp (eV)   -0.00136

 E6    (eV) :    -0.0013
 E8    (eV) :    -0.0001
 % E8        :  5.25
    FORVDW:  cpu time      0.0085: real time      0.0086

  FORCE on cell =-STRESS in cart. coord.  units (eV):
  Direction    XX          YY          ZZ          XY          YZ          ZX
  --------------------------------------------------------------------------------------
  Alpha Z     0.02803     0.02803     0.02803
  Ewald      57.25175    85.86831   -21.81662    22.11711    -0.00008     0.00016
  Hartree   175.38238   179.92099   161.99280     3.49946    -0.00001     0.00003
  E(xc)     -36.38409   -36.24955   -36.82438     0.10428    -0.00000     0.00000
  Local    -318.58415  -343.50932  -249.44642   -19.24785     0.00007    -0.00014
  n-local   -30.87608   -30.45858   -30.76657     0.32150     0.00000     0.00000
  augment     6.57354     6.07720     8.06158    -0.38423     0.00000    -0.00000
  Kinetic   145.91515   138.34636   167.14047    -5.86013     0.00002    -0.00005
  Fock        0.00000     0.00000     0.00000     0.00000     0.00000     0.00000
  vdW         0.00265     0.00807    -0.00000     0.00419     0.00000     0.00000
  -------------------------------------------------------------------------------------
  Total      -0.69080     0.03152    -1.63111     0.55434     0.00000     0.00000
  in kB      -0.13835     0.00631    -0.32667     0.11102     0.00000     0.00000
  external pressure =       -0.15 kB  Pullay stress =        0.00 kB


 VOLUME and BASIS-vectors are now :
 -----------------------------------------------------------------------------
  energy-cutoff  :      400.00
  volume of cell :     8000.00
      direct lattice vectors                 reciprocal lattice vectors
    20.000000000  0.000000000  0.000000000     0.050000000  0.000000000  0.000000000
     0.000000000 20.000000000  0.000000000     0.000000000  0.050000000  0.000000000
     0.000000000  0.000000000 20.000000000     0.000000000  0.000000000  0.050000000

  length of vectors
    20.000000000 20.000000000 20.000000000     0.050000000  0.050000000  0.050000000


 FORCES acting on ions
    electron-ion (+dipol)            ewald-force                    non-local-force                 convergence-correction
 -----------------------------------------------------------------------------------------------
   -.114E+02 0.879E+02 -.132E-03   0.119E+02 -.950E+02 0.142E-03   -.114E+01 0.834E+01 -.115E-04   -.721E-04 0.266E-04 -.377E-08
   -.800E+02 -.381E+02 -.146E-03   0.862E+02 0.416E+02 0.156E-03   -.763E+01 -.357E+01 -.147E-04   -.710E-04 0.606E-04 0.713E-08
   0.524E+02 -.285E+02 0.163E-03   -.981E+02 0.534E+02 -.298E-03   0.401E+02 -.219E+02 0.117E-03   -.619E-03 0.548E-03 -.342E-07
 -----------------------------------------------------------------------------------------------
   -.313E+02 0.171E+02 -.909E-04   0.000E+00 0.711E-14 0.412E-17   0.313E+02 -.171E+02 0.906E-04   -.762E-03 0.635E-03 -.308E-07


 POSITION                                       TOTAL-FORCE (eV/Angst)
 -----------------------------------------------------------------------------------
      9.80764      9.62245     10.00000        -0.014477      0.022324      0.000001
     10.54312     10.97317     10.00000        -0.018312      0.008377     -0.000001
      9.64924     10.58438     10.00000         0.032789     -0.030701     -0.000001
 -----------------------------------------------------------------------------------
    total drift:                               -0.008130     -0.011847     -0.000000


--------------------------------------------------------------------------------------------------------



  FREE ENERGIE OF THE ION-ELECTRON SYSTEM (eV)
  ---------------------------------------------------
  free  energy   TOTEN  =       -14.48114417 eV

  energy  without entropy=      -14.48114417  energy(sigma->0) =      -14.48114417

 d Force = 0.1053642E-03[ 0.511E-04, 0.160E-03]  d Energy = 0.7043448E-04 0.349E-04
 d Force =-0.2021685E+00[-0.202E+00,-0.202E+00]  d Ewald  =-0.2021684E+00-0.110E-06


--------------------------------------------------------------------------------------------------------


    POTLOK:  cpu time      2.6682: real time      2.6955


--------------------------------------------------------------------------------------------------------


 stress matrix after NEB project (eV)
     -0.69080      0.55432      0.00000
      0.55434      0.03152      0.00000
      0.00000      0.00000     -1.63111
  FORCES: max atom, RMS     0.044919    0.032307
  FORCE total and by dimension    0.055957    0.032789
  Stress total and by dimension    1.937335    1.631107


--------------------------------------------------------------------------------------------------------


    WAVPRE:  cpu time      0.0095: real time      0.0110
    FEWALD:  cpu time      0.0003: real time      0.0004

 real space projection operators:
  total allocation   :        154.05 KBytes
  max/ min on nodes  :         39.50         36.65

    ORTHCH:  cpu time      0.0203: real time      0.0206
     LOOP+:  cpu time     23.7475: real time     24.0677


--------------------------------------- Ionic step        4  -------------------------------------------




--------------------------------------- Iteration      4(   1)  ---------------------------------------


    POTLOK:  cpu time      2.9177: real time      2.9470
    SETDIJ:  cpu time      0.0880: real time      0.0889
     EDDAV:  cpu time      0.3391: real time      0.3429
       DOS:  cpu time      0.0011: real time      0.0011
    CHARGE:  cpu time      0.0632: real time      0.0645
    MIXING:  cpu time      0.0024: real time      0.0024
    --------------------------------------------
      LOOP:  cpu time      3.4116: real time      3.4469

 eigenvalue-minimisations  :   128
 total energy-change (2. order) : 0.8832161E-05  (-0.7119101E-04)
 number of electron       8.0000001 magnetization 
 augmentation part        0.6941642 magnetization 

 DIPCOR: dipole corrections for dipol
 direction  3 min pos     1,
 dipolmoment           0.000000      0.000000     -0.000001 electrons x Angstroem
 Tr[quadrupol]     -1449.596472

 energy correction for charged system         0.000000 eV
 dipol+quadrupol energy correction           -0.000000 eV
 added-field ion interaction         -0.000000 eV  (added to PSCEN)


 Broyden mixing:
  rms(total) = 0.10745E-02    rms(broyden)= 0.10719E-02
  rms(prec ) = 0.11383E-02
  weight for this iteration     100.00

 Free energy of the ion-electron system (eV)
  ---------------------------------------------------
  alpha Z        PSCENC =         0.02803141
  Ewald energy   TEWEN  =       121.39718676
  -Hartree energ DENC   =      -517.34121366
  -exchange      EXHF   =         0.00000000
  -V(xc)+E(xc)   XCENC  =        33.70585700
  PAW double counting   =       567.42159051     -569.20441408
  entropy T*S    EENTRO =        -0.00000000
  eigenvalues    EBANDS =      -106.33403311
  atomic energy  EATOM  =       457.26981990
  Solvation  Ediel_sol  =        -1.42260288
  ---------------------------------------------------
  free energy    TOTEN  =       -14.47977815 eV

  energy without entropy =      -14.47977815  energy(sigma->0) =      -14.47977815


--------------------------------------------------------------------------------------------------------




--------------------------------------- Iteration      4(   2)  ---------------------------------------


    POTLOK:  cpu time      2.5597: real time      2.5851
    SETDIJ:  cpu time      0.0910: real time      0.0918
     EDDAV:  cpu time      0.2550: real time      0.2579
       DOS:  cpu time      0.0006: real time      0.0006
    CHARGE:  cpu time      0.0628: real time      0.0639
    MIXING:  cpu time      0.0026: real time      0.0026
    --------------------------------------------
      LOOP:  cpu time      2.9718: real time      3.0020

 eigenvalue-minimisations  :    96
 total energy-change (2. order) : 0.1024465E-04  (-0.1691794E-05)
 number of electron       8.0000001 magnetization 
 augmentation part        0.6940336 magnetization 

 DIPCOR: dipole corrections for dipol
 direction  3 min pos     1,
 dipolmoment           0.000000      0.000000     -0.000001 electrons x Angstroem
 Tr[quadrupol]     -1449.596439

 energy correction for charged system         0.000000 eV
 dipol+quadrupol energy correction           -0.000000 eV
 added-field ion interaction         -0.000000 eV  (added to PSCEN)


 Broyden mixing:
  rms(total) = 0.34779E-03    rms(broyden)= 0.34622E-03
  rms(prec ) = 0.36021E-03
  weight for this iteration     100.00

 eigenvalues of (default mixing * dielectric matrix)
  average eigenvalue GAMMA=   1.0537
  1.0537

 Free energy of the ion-electron system (eV)
  ---------------------------------------------------
  alpha Z        PSCENC =         0.02803141
  Ewald energy   TEWEN  =       121.39718676
  -Hartree energ DENC   =      -517.36612099
  -exchange      EXHF   =         0.00000000
  -V(xc)+E(xc)   XCENC  =        33.70722990
  PAW double counting   =       567.57429779     -569.35752836
  entropy T*S    EENTRO =        -0.00000000
  eigenvalues    EBANDS =      -106.30959414
  atomic energy  EATOM  =       457.26981990
  Solvation  Ediel_sol  =        -1.42309018
  ---------------------------------------------------
  free energy    TOTEN  =       -14.47976790 eV

  energy without entropy =      -14.47976790  energy(sigma->0) =      -14.47976790


--------------------------------------------------------------------------------------------------------




--------------------------------------- Iteration      4(   3)  ---------------------------------------


    POTLOK:  cpu time      3.2307: real time      3.2624
    SETDIJ:  cpu time      0.0889: real time      0.0895
     EDDAV:  cpu time      0.2502: real time      0.2531
       DOS:  cpu time      0.0007: real time      0.0007
    CHARGE:  cpu time      0.0629: real time      0.0641
    MIXING:  cpu time      0.0026: real time      0.0026
    --------------------------------------------
      LOOP:  cpu time      3.6361: real time      3.6724

 eigenvalue-minimisations  :    96
 total energy-change (2. order) :-0.6994647E-05  (-0.2779501E-07)
 number of electron       8.0000001 magnetization 
 augmentation part        0.6940360 magnetization 

 DIPCOR: dipole corrections for dipol
 direction  3 min pos     1,
 dipolmoment           0.000000      0.000000     -0.000001 electrons x Angstroem
 Tr[quadrupol]     -1449.596420

 energy correction for charged system         0.000000 eV
 dipol+quadrupol energy correction           -0.000000 eV
 added-field ion interaction         -0.000000 eV  (added to PSCEN)


 Broyden mixing:
  rms(total) = 0.18716E-03    rms(broyden)= 0.18702E-03
  rms(prec ) = 0.19428E-03
  weight for this iteration     100.00

 eigenvalues of (default mixing * dielectric matrix)
  average eigenvalue GAMMA=   1.6150
  1.0022  2.2278

 Free energy of the ion-electron system (eV)
  ---------------------------------------------------
  alpha Z        PSCENC =         0.02803141
  Ewald energy   TEWEN  =       121.39718676
  -Hartree energ DENC   =      -517.36695907
  -exchange      EXHF   =         0.00000000
  -V(xc)+E(xc)   XCENC  =        33.70727866
  PAW double counting   =       567.64304479     -569.42635395
  entropy T*S    EENTRO =        -0.00000000
  eigenvalues    EBANDS =      -106.30900644
  atomic energy  EATOM  =       457.26981990
  Solvation  Ediel_sol  =        -1.42281696
  ---------------------------------------------------
  free energy    TOTEN  =       -14.47977490 eV

  energy without entropy =      -14.47977490  energy(sigma->0) =      -14.47977490


--------------------------------------------------------------------------------------------------------




--------------------------------------- Iteration      4(   4)  ---------------------------------------


    POTLOK:  cpu time      2.5939: real time      2.6249
    SETDIJ:  cpu time      0.0895: real time      0.0903
     EDDAV:  cpu time      0.2497: real time      0.2530
       DOS:  cpu time      0.0007: real time      0.0007
    CHARGE:  cpu time      0.0630: real time      0.0644
    MIXING:  cpu time      0.0021: real time      0.0021
    --------------------------------------------
      LOOP:  cpu time      2.9989: real time      3.0354

 eigenvalue-minimisations  :    96
 total energy-change (2. order) :-0.1160436E-04  (-0.4322458E-07)
 number of electron       8.0000001 magnetization 
 augmentation part        0.6940374 magnetization 

 DIPCOR: dipole corrections for dipol
 direction  3 min pos     1,
 dipolmoment           0.000000      0.000000     -0.000001 electrons x Angstroem
 Tr[quadrupol]     -1449.596398

 energy correction for charged system         0.000000 eV
 dipol+quadrupol energy correction           -0.000000 eV
 added-field ion interaction         -0.000000 eV  (added to PSCEN)


 Broyden mixing:
  rms(total) = 0.27121E-04    rms(broyden)= 0.26747E-04
  rms(prec ) = 0.30216E-04
  weight for this iteration     100.00

 eigenvalues of (default mixing * dielectric matrix)
  average eigenvalue GAMMA=   1.6750
  1.0019  2.2132  1.8099

 Free energy of the ion-electron system (eV)
  ---------------------------------------------------
  alpha Z        PSCENC =         0.02803141
  Ewald energy   TEWEN  =       121.39718676
  -Hartree energ DENC   =      -517.36783957
  -exchange      EXHF   =         0.00000000
  -V(xc)+E(xc)   XCENC  =        33.70733468
  PAW double counting   =       567.72919009     -569.51260897
  entropy T*S    EENTRO =        -0.00000000
  eigenvalues    EBANDS =      -106.30874159
  atomic energy  EATOM  =       457.26981990
  Solvation  Ediel_sol  =        -1.42215922
  ---------------------------------------------------
  free energy    TOTEN  =       -14.47978650 eV

  energy without entropy =      -14.47978650  energy(sigma->0) =      -14.47978650


--------------------------------------------------------------------------------------------------------




--------------------------------------- Iteration      4(   5)  ---------------------------------------


    POTLOK:  cpu time      2.4848: real time      2.5136
    SETDIJ:  cpu time      0.0883: real time      0.0892
     EDDAV:  cpu time      0.2505: real time      0.2534
       DOS:  cpu time      0.0007: real time      0.0007
    CHARGE:  cpu time      0.0611: real time      0.0623
    MIXING:  cpu time      0.0041: real time      0.0041
    --------------------------------------------
      LOOP:  cpu time      2.8896: real time      2.9234

 eigenvalue-minimisations  :    96
 total energy-change (2. order) :-0.1260169E-05  (-0.5964589E-08)
 number of electron       8.0000001 magnetization 
 augmentation part        0.6940341 magnetization 

 DIPCOR: dipole corrections for dipol
 direction  3 min pos     1,
 dipolmoment           0.000000      0.000000     -0.000001 electrons x Angstroem
 Tr[quadrupol]     -1449.596375

 energy correction for charged system         0.000000 eV
 dipol+quadrupol energy correction           -0.000000 eV
 added-field ion interaction         -0.000000 eV  (added to PSCEN)


 Broyden mixing:
  rms(total) = 0.17814E-04    rms(broyden)= 0.17274E-04
  rms(prec ) = 0.20571E-04
  weight for this iteration     100.00

 eigenvalues of (default mixing * dielectric matrix)
  average eigenvalue GAMMA=   1.5496
  2.2511  2.2511  1.0055  0.6909

 Free energy of the ion-electron system (eV)
  ---------------------------------------------------
  alpha Z        PSCENC =         0.02803141
  Ewald energy   TEWEN  =       121.39718676
  -Hartree energ DENC   =      -517.36772013
  -exchange      EXHF   =         0.00000000
  -V(xc)+E(xc)   XCENC  =        33.70733026
  PAW double counting   =       567.73815280     -569.52159285
  entropy T*S    EENTRO =        -0.00000000
  eigenvalues    EBANDS =      -106.30928282
  atomic energy  EATOM  =       457.26981990
  Solvation  Ediel_sol  =        -1.42171310
  ---------------------------------------------------
  free energy    TOTEN  =       -14.47978776 eV

  energy without entropy =      -14.47978776  energy(sigma->0) =      -14.47978776


--------------------------------------------------------------------------------------------------------




--------------------------------------- Iteration      4(   6)  ---------------------------------------


    POTLOK:  cpu time      2.3752: real time      2.4026
    SETDIJ:  cpu time      0.0891: real time      0.0898
     EDDAV:  cpu time      0.2535: real time      0.2564
       DOS:  cpu time      0.0005: real time      0.0006
    --------------------------------------------
      LOOP:  cpu time      2.7184: real time      2.7493

 eigenvalue-minimisations  :    96
 total energy-change (2. order) :-0.3493535E-06  (-0.8873311E-09)
 number of electron       8.0000001 magnetization 
 augmentation part        0.6940341 magnetization 

 DIPCOR: dipole corrections for dipol
 direction  3 min pos     1,
 dipolmoment           0.000000      0.000000     -0.000001 electrons x Angstroem
 Tr[quadrupol]     -1449.596362

 energy correction for charged system         0.000000 eV
 dipol+quadrupol energy correction           -0.000000 eV
 added-field ion interaction         -0.000000 eV  (added to PSCEN)


 Free energy of the ion-electron system (eV)
  ---------------------------------------------------
  alpha Z        PSCENC =         0.02803141
  Ewald energy   TEWEN  =       121.39718676
  -Hartree energ DENC   =      -517.36764597
  -exchange      EXHF   =         0.00000000
  -V(xc)+E(xc)   XCENC  =        33.70732776
  PAW double counting   =       567.73989412     -569.52333136
  entropy T*S    EENTRO =        -0.00000000
  eigenvalues    EBANDS =      -106.30955616
  atomic energy  EATOM  =       457.26981990
  Solvation  Ediel_sol  =        -1.42151457
  ---------------------------------------------------
  free energy    TOTEN  =       -14.47978811 eV

  energy without entropy =      -14.47978811  energy(sigma->0) =      -14.47978811


--------------------------------------------------------------------------------------------------------




 average (electrostatic) potential at core
  the test charge radii are     0.5201  0.7215
  (the norm of the test charge is              1.0000)
       1 -44.1849       2 -44.1823       3 -80.2713



 E-fermi :  -6.3689     XC(G=0):  -0.1039     alpha+bet : -0.0163

 Fermi energy:        -6.3689453097

 k-point     1 :       0.0000    0.0000    0.0000
  band No.  band energies     occupation 
      1     -24.8522      2.00000
      2     -12.4566      2.00000
      3      -8.9497      2.00000
      4      -6.8963      2.00000
      5      -0.4395      0.00000
      6       0.0469      0.00000
      7       0.2965      0.00000
      8       0.3074      0.00000
      9       0.3125      0.00000
     10       0.3405      0.00000
     11       0.3421      0.00000
     12       0.5114      0.00000
     13       0.6031      0.00000
     14       0.6237      0.00000
     15       0.6286      0.00000
     16       0.7053      0.00000
     17       0.7129      0.00000
     18       0.7133      0.00000
     19       0.7145      0.00000
     20       0.7193      0.00000
     21       0.7262      0.00000
     22       0.7298      0.00000
     23       0.7310      0.00000
     24       0.9935      0.00000
     25       1.0242      0.00000
     26       1.0376      0.00000
     27       1.0399      0.00000
     28       1.0796      0.00000
     29       1.0825      0.00000
     30       1.0913      0.00000
     31       1.1025      0.00000
     32       1.3485      0.00000


--------------------------------------------------------------------------------------------------------


 soft charge-density along one line, spin component           1
         0         1         2         3         4         5         6         7         8         9
 total charge-density along one line

 pseudopotential strength for first ion, spin component:           1
 -2.370  -4.093  -0.024   0.000   0.003
 -4.093  -6.981  -0.044   0.000   0.005
 -0.024  -0.044  -0.284  -0.000  -0.005
  0.000   0.000  -0.000  -0.328  -0.000
  0.003   0.005  -0.005  -0.000  -0.326
 total augmentation occupancy for first ion, spin component:           1
  3.905  -0.856   0.718  -0.000  -0.110
 -0.856   0.234  -0.152   0.000   0.027
  0.718  -0.152   0.133  -0.000  -0.018
 -0.000   0.000  -0.000   0.037  -0.000
 -0.110   0.027  -0.018  -0.000   0.027


------------------------ aborting loop because EDIFF is reached ----------------------------------------


    CHARGE:  cpu time      0.0620: real time      0.0627
    FORLOC:  cpu time      0.0052: real time      0.0052
    FORNL :  cpu time      0.2700: real time      0.2748
    STRESS:  cpu time      0.8492: real time      0.8612
    FORCOR:  cpu time      0.0560: real time      0.0564
    FORHAR:  cpu time      0.0152: real time      0.0153
    MIXING:  cpu time      0.0013: real time      0.0013
    OFIELD:  cpu time      0.0000: real time      0.0000

 ---------------------------------------------------------------------------------------------

         DFTD3 V3.0 Rev 1        
 Edisp (eV)   -0.00135

 E6    (eV) :    -0.0013
 E8    (eV) :    -0.0001
 % E8        :  5.25
    FORVDW:  cpu time      0.0085: real time      0.0086

  FORCE on cell =-STRESS in cart. coord.  units (eV):
  Direction    XX          YY          ZZ          XY          YZ          ZX
  --------------------------------------------------------------------------------------
  Alpha Z     0.02803     0.02803     0.02803
  Ewald      57.27088    85.94292   -21.81659    22.14732    -0.00007     0.00016
  Hartree   175.40351   179.94603   162.01794     3.50319    -0.00001     0.00003
  E(xc)     -36.38804   -36.25335   -36.82818     0.10441    -0.00000     0.00000
  Local    -318.61915  -343.58079  -249.47961   -19.27131     0.00006    -0.00014
  n-local   -30.88730   -30.47180   -30.77309     0.32125     0.00000     0.00000
  augment     6.57497     6.07769     8.06305    -0.38479     0.00000    -0.00000
  Kinetic   145.93972   138.36325   167.15772    -5.86665     0.00002    -0.00005
  Fock        0.00000     0.00000     0.00000     0.00000     0.00000     0.00000
  vdW         0.00265     0.00805    -0.00000     0.00418     0.00000     0.00000
  -------------------------------------------------------------------------------------
  Total      -0.67474     0.06002    -1.63073     0.55760     0.00000     0.00001
  in kB      -0.13513     0.01202    -0.32659     0.11167     0.00000     0.00000
  external pressure =       -0.15 kB  Pullay stress =        0.00 kB


 VOLUME and BASIS-vectors are now :
 -----------------------------------------------------------------------------
  energy-cutoff  :      400.00
  volume of cell :     8000.00
      direct lattice vectors                 reciprocal lattice vectors
    20.000000000  0.000000000  0.000000000     0.050000000  0.000000000  0.000000000
     0.000000000 20.000000000  0.000000000     0.000000000  0.050000000  0.000000000
     0.000000000  0.000000000 20.000000000     0.000000000  0.000000000  0.050000000

  length of vectors
    20.000000000 20.000000000 20.000000000     0.050000000  0.050000000  0.050000000


 FORCES acting on ions
    electron-ion (+dipol)            ewald-force                    non-local-force                 convergence-correction
 -----------------------------------------------------------------------------------------------
   -.114E+02 0.879E+02 -.132E-03   0.119E+02 -.951E+02 0.141E-03   -.114E+01 0.836E+01 -.114E-04   -.552E-04 0.290E-04 0.944E-08
   -.800E+02 -.381E+02 -.146E-03   0.863E+02 0.416E+02 0.157E-03   -.764E+01 -.358E+01 -.146E-04   -.548E-04 0.571E-04 0.877E-08
   0.524E+02 -.285E+02 0.163E-03   -.982E+02 0.535E+02 -.298E-03   0.401E+02 -.219E+02 0.117E-03   -.496E-03 0.525E-03 0.140E-06
 -----------------------------------------------------------------------------------------------
   -.313E+02 0.171E+02 -.907E-04   0.000E+00 -.711E-14 0.412E-17   0.313E+02 -.171E+02 0.905E-04   -.606E-03 0.611E-03 0.158E-06


 POSITION                                       TOTAL-FORCE (eV/Angst)
 -----------------------------------------------------------------------------------
      9.80764      9.62281     10.00000        -0.010265     -0.004200      0.000001
     10.54289     10.97298     10.00000        -0.000548      0.016405     -0.000001
      9.64947     10.58421     10.00000         0.010813     -0.012205     -0.000001
 -----------------------------------------------------------------------------------
    total drift:                               -0.008293     -0.011762     -0.000000


--------------------------------------------------------------------------------------------------------



  FREE ENERGIE OF THE ION-ELECTRON SYSTEM (eV)
  ---------------------------------------------------
  free  energy   TOTEN  =       -14.48114009 eV

  energy  without entropy=      -14.48114009  energy(sigma->0) =      -14.48114009

 d Force = 0.1192607E-04[ 0.195E-06, 0.237E-04]  d Energy =-0.4075897E-05 0.160E-04
 d Force =-0.9376222E-01[-0.938E-01,-0.937E-01]  d Ewald  =-0.9376221E-01-0.110E-07


--------------------------------------------------------------------------------------------------------


    POTLOK:  cpu time      2.6236: real time      2.7293


--------------------------------------------------------------------------------------------------------


 stress matrix after NEB project (eV)
     -0.67474      0.55759      0.00001
      0.55760      0.06002      0.00000
      0.00001      0.00000     -1.63073
  FORCES: max atom, RMS     0.016414    0.014814
  FORCE total and by dimension    0.025658    0.016405
  Stress total and by dimension    1.933907    1.630733


--------------------------------------------------------------------------------------------------------


  
 reached required accuracy - stopping structural energy minimisation
     LOOP+:  cpu time     22.6116: real time     22.9404
    4ORBIT:  cpu time      0.0000: real time      0.0000

 total amount of memory used by VASP MPI-rank0    62694. kBytes
=======================================================================

   base      :      30000. kBytes
   nonlr-proj:        114. kBytes
   fftplans  :      18019. kBytes
   grid      :      13977. kBytes
   one-center:          3. kBytes
   wavefun   :        581. kBytes

  
  
 General timing and accounting informations for this job:
 ========================================================
  
                  Total CPU time used (sec):      175.979
                            User time (sec):      170.860
                          System time (sec):        5.119
                         Elapsed time (sec):      186.961
  
                   Maximum memory used (kb):      351708.
                   Average memory used (kb):          N/A
  
                          Minor page faults:       213957
                          Major page faults:            6
                 Voluntary context switches:        18634
