 H  O Pt                                
   1.0000000000000000     
     8.4637688330671441    0.0000000000000000    0.0000000000000005
    -4.2318844165335747    7.3298388211951195    0.0000000000000005
     0.0000000000000000    0.0000000000000000   34.5531915698098757
  H/              O/              Pt/           
               1               1              54
Selective dynamics
Direct
  0.8773767222343034  0.2698705027323384  0.7347285573628023   T   T   T
  0.0041331945476519  0.3353957092753235  0.7257650731153189   T   T   T
  0.7777777777777786  0.8888888888888857  0.5333333333333314   F   F   F
  0.5555555555555571  0.4444444444444429  0.6000000000000014   F   F   F
  0.3333333333333357  0.0000000000000000  0.4666666666666686   F   F   F
  0.4444444444444429  0.8888888888888857  0.3333333333333357   F   F   F
  0.5555555555555571  0.7777777777777786  0.3999999999999986   F   F   F
  0.3292207980109697  0.9980651012860458  0.6666078494646275   T   T   T
  0.4444444444444429  0.8888888888888857  0.5333333333333314   F   F   F
  0.5555555555555571  0.7777777777777786  0.6000000000000014   F   F   F
  0.6666666666666643  0.3333333333333357  0.4666666666666686   F   F   F
  0.7777777777777786  0.2222222222222214  0.3333333333333357   F   F   F
  0.8888888888888857  0.1111111111111143  0.3999999999999986   F   F   F
  0.6609893758326927  0.3318375972932051  0.6660537898050350   T   T   T
  0.7777777777777786  0.2222222222222214  0.5333333333333314   F   F   F
  0.4444444444444429  0.5555555555555571  0.5333333333333314   F   F   F
  0.6666666666666643  0.6666666666666643  0.4666666666666686   F   F   F
  0.7777777777777786  0.5555555555555571  0.3333333333333357   F   F   F
  0.8888888888888857  0.4444444444444429  0.3999999999999986   F   F   F
  0.6624078897997334  0.6646467358352621  0.6668390170818271   T   T   T
  0.7777777777777786  0.5555555555555571  0.5333333333333314   F   F   F
  0.8888888888888857  0.4444444444444429  0.6000000000000014   F   F   F
  0.6666666666666643  0.0000000000000000  0.4666666666666686   F   F   F
  0.7777777777777786  0.8888888888888857  0.3333333333333357   F   F   F
  0.8888888888888857  0.7777777777777786  0.3999999999999986   F   F   F
  0.6609228532971300  0.9959889165749054  0.6660452937071113   T   T   T
  0.8888888888888857  0.7777777777777786  0.6000000000000014   F   F   F
  0.8888888888888857  0.1111111111111143  0.6000000000000014   F   F   F
  0.0000000000000000  0.3333333333333357  0.4666666666666686   F   F   F
  0.4444444444444429  0.5555555555555571  0.3333333333333357   F   F   F
  0.1111111111111143  0.2222222222222214  0.3333333333333357   F   F   F
  0.2222222222222214  0.1111111111111143  0.3999999999999986   F   F   F
  0.9938651671839139  0.3304249439757592  0.6680585657958358   T   T   T
  0.1111111111111143  0.2222222222222214  0.5333333333333314   F   F   F
  0.2222222222222214  0.1111111111111143  0.6000000000000014   F   F   F
  0.0000000000000000  0.6666666666666643  0.4666666666666686   F   F   F
  0.1111111111111143  0.5555555555555571  0.3333333333333357   F   F   F
  0.2222222222222214  0.4444444444444429  0.3999999999999986   F   F   F
  0.9957601728754967  0.6668410957216044  0.6659905416157172   T   T   T
  0.1111111111111143  0.5555555555555571  0.5333333333333314   F   F   F
  0.2222222222222214  0.4444444444444429  0.6000000000000014   F   F   F
  0.5555555555555571  0.4444444444444429  0.3999999999999986   F   F   F
  0.0000000000000000  0.0000000000000000  0.4666666666666686   F   F   F
  0.2222222222222214  0.7777777777777786  0.3999999999999986   F   F   F
  0.9957514312051815  0.9958296310083030  0.6659968338112661   T   T   T
  0.1111111111111143  0.8888888888888857  0.5333333333333314   F   F   F
  0.2222222222222214  0.7777777777777786  0.6000000000000014   F   F   F
  0.3333333333333357  0.3333333333333357  0.4666666666666686   F   F   F
  0.4444444444444429  0.2222222222222214  0.3333333333333357   F   F   F
  0.5555555555555571  0.1111111111111143  0.3999999999999986   F   F   F
  0.3321690798033517  0.3319118979999275  0.6657670478125188   T   T   T
  0.4444444444444429  0.2222222222222214  0.5333333333333314   F   F   F
  0.5555555555555571  0.1111111111111143  0.6000000000000014   F   F   F
  0.3333333333333357  0.6666666666666643  0.4666666666666686   F   F   F
  0.1111111111111143  0.8888888888888857  0.3333333333333357   F   F   F
  0.3321834182318550  0.6672677314267196  0.6657722934116735   T   T   T

  0.00000000E+00  0.00000000E+00  0.00000000E+00
  0.00000000E+00  0.00000000E+00  0.00000000E+00
  0.00000000E+00  0.00000000E+00  0.00000000E+00
  0.00000000E+00  0.00000000E+00  0.00000000E+00
  0.00000000E+00  0.00000000E+00  0.00000000E+00
  0.00000000E+00  0.00000000E+00  0.00000000E+00
  0.00000000E+00  0.00000000E+00  0.00000000E+00
  0.00000000E+00  0.00000000E+00  0.00000000E+00
  0.00000000E+00  0.00000000E+00  0.00000000E+00
  0.00000000E+00  0.00000000E+00  0.00000000E+00
  0.00000000E+00  0.00000000E+00  0.00000000E+00
  0.00000000E+00  0.00000000E+00  0.00000000E+00
  0.00000000E+00  0.00000000E+00  0.00000000E+00
  0.00000000E+00  0.00000000E+00  0.00000000E+00
  0.00000000E+00  0.00000000E+00  0.00000000E+00
  0.00000000E+00  0.00000000E+00  0.00000000E+00
  0.00000000E+00  0.00000000E+00  0.00000000E+00
  0.00000000E+00  0.00000000E+00  0.00000000E+00
  0.00000000E+00  0.00000000E+00  0.00000000E+00
  0.00000000E+00  0.00000000E+00  0.00000000E+00
  0.00000000E+00  0.00000000E+00  0.00000000E+00
  0.00000000E+00  0.00000000E+00  0.00000000E+00
  0.00000000E+00  0.00000000E+00  0.00000000E+00
  0.00000000E+00  0.00000000E+00  0.00000000E+00
  0.00000000E+00  0.00000000E+00  0.00000000E+00
  0.00000000E+00  0.00000000E+00  0.00000000E+00
  0.00000000E+00  0.00000000E+00  0.00000000E+00
  0.00000000E+00  0.00000000E+00  0.00000000E+00
  0.00000000E+00  0.00000000E+00  0.00000000E+00
  0.00000000E+00  0.00000000E+00  0.00000000E+00
  0.00000000E+00  0.00000000E+00  0.00000000E+00
  0.00000000E+00  0.00000000E+00  0.00000000E+00
  0.00000000E+00  0.00000000E+00  0.00000000E+00
  0.00000000E+00  0.00000000E+00  0.00000000E+00
  0.00000000E+00  0.00000000E+00  0.00000000E+00
  0.00000000E+00  0.00000000E+00  0.00000000E+00
  0.00000000E+00  0.00000000E+00  0.00000000E+00
  0.00000000E+00  0.00000000E+00  0.00000000E+00
  0.00000000E+00  0.00000000E+00  0.00000000E+00
  0.00000000E+00  0.00000000E+00  0.00000000E+00
  0.00000000E+00  0.00000000E+00  0.00000000E+00
  0.00000000E+00  0.00000000E+00  0.00000000E+00
  0.00000000E+00  0.00000000E+00  0.00000000E+00
  0.00000000E+00  0.00000000E+00  0.00000000E+00
  0.00000000E+00  0.00000000E+00  0.00000000E+00
  0.00000000E+00  0.00000000E+00  0.00000000E+00
  0.00000000E+00  0.00000000E+00  0.00000000E+00
  0.00000000E+00  0.00000000E+00  0.00000000E+00
  0.00000000E+00  0.00000000E+00  0.00000000E+00
  0.00000000E+00  0.00000000E+00  0.00000000E+00
  0.00000000E+00  0.00000000E+00  0.00000000E+00
  0.00000000E+00  0.00000000E+00  0.00000000E+00
  0.00000000E+00  0.00000000E+00  0.00000000E+00
  0.00000000E+00  0.00000000E+00  0.00000000E+00
  0.00000000E+00  0.00000000E+00  0.00000000E+00
  0.00000000E+00  0.00000000E+00  0.00000000E+00
