Cu  H  O Pt                             
   1.0000000000000000     
    11.1887137964146977    0.0000000000000000    0.0000000000000007
    -5.5943568982073524    9.6897103833685563    0.0000000000000007
     0.0000000000000000    0.0000000000000000   41.1099595188816593
  Cu              H               O               Pt            
    12     1     1    84
Selective dynamics
Direct
  0.3333333333333357  0.1666666666666643  0.3585544345969893   F   F   F
  0.6666666666666643  0.8333333333333357  0.5807766568192108   F   F   F
  0.0000000000000000  0.0000000000000000  0.4696655457081036   F   F   F
  0.8333333333333357  0.6666666666666643  0.3585544345969893   F   F   F
  0.6666666666666643  0.3333333333333357  0.5807766568192108   F   F   F
  0.0000000000000000  0.5000000000000000  0.4696655457081036   F   F   F
  0.1666666666666643  0.8333333333333357  0.5807766568192108   F   F   F
  0.5000000000000000  0.0000000000000000  0.4696655457081036   F   F   F
  0.3333333333333357  0.6666666666666643  0.3585544345969893   F   F   F
  0.8333333333333357  0.1666666666666643  0.3585544345969893   F   F   F
  0.5000000000000000  0.5000000000000000  0.4696655457081036   F   F   F
  0.1666666666666643  0.3333333333333357  0.5807766568192108   F   F   F
  0.0859774005075058  0.0777300900129384  0.6928084672253193   T   T   T
  0.0013486460544451  0.9942348154989614  0.6861502508122823   T   T   T
  0.8333333333333357  0.4166666666666643  0.5252211012636536   F   F   F
  0.4990769723194335  0.5005760622735842  0.6368696863091762   T   T   T
  0.7484892116234877  0.2520578136432092  0.6358400428216884   T   T   T
  0.5833333333333357  0.4166666666666643  0.5252211012636536   F   F   F
  0.9166666666666643  0.0833333333333357  0.4141099901525465   F   F   F
  0.5833333333333357  0.4166666666666643  0.3585544345969893   F   F   F
  0.9166666666666643  0.0833333333333357  0.5807766568192108   F   F   F
  0.7500000000000000  0.2500000000000000  0.4696655457081036   F   F   F
  0.5833333333333357  0.1666666666666643  0.3585544345969893   F   F   F
  0.7482998105052224  0.4984007654302804  0.6358628736967582   T   T   T
  0.7500000000000000  0.5000000000000000  0.4696655457081036   F   F   F
  0.8333333333333357  0.4166666666666643  0.3585544345969893   F   F   F
  0.6666666666666643  0.0833333333333357  0.5807766568192108   F   F   F
  0.0000000000000000  0.2500000000000000  0.4696655457081036   F   F   F
  0.0016772477315407  0.2543927582322305  0.6353893263773390   T   T   T
  0.6666666666666643  0.0833333333333357  0.4141099901525465   F   F   F
  0.9166666666666643  0.3333333333333357  0.5807766568192108   F   F   F
  0.9983321851847730  0.0019688910108798  0.6376292203451805   T   T   T
  0.6666666666666643  0.8333333333333357  0.4141099901525465   F   F   F
  0.7461571930232482  0.7494674082590642  0.6351788146621248   T   T   T
  0.5833333333333357  0.9166666666666643  0.5252211012636536   F   F   F
  0.9166666666666643  0.5833333333333357  0.4141099901525465   F   F   F
  0.5833333333333357  0.9166666666666643  0.3585544345969893   F   F   F
  0.9166666666666643  0.5833333333333357  0.5807766568192108   F   F   F
  0.7500000000000000  0.7500000000000000  0.4696655457081036   F   F   F
  0.5833333333333357  0.6666666666666643  0.3585544345969893   F   F   F
  0.9166666666666643  0.8333333333333357  0.5807766568192108   F   F   F
  0.7500000000000000  0.0000000000000000  0.4696655457081036   F   F   F
  0.8333333333333357  0.9166666666666643  0.3585544345969893   F   F   F
  0.6666666666666643  0.5833333333333357  0.5807766568192108   F   F   F
  0.0000000000000000  0.7500000000000000  0.4696655457081036   F   F   F
  0.0015555442505499  0.7496736234584505  0.6352141762325451   T   T   T
  0.8333333333333357  0.9166666666666643  0.5252211012636536   F   F   F
  0.6666666666666643  0.5833333333333357  0.4141099901525465   F   F   F
  0.7458737920106470  0.9987017145574670  0.6353283503139787   T   T   T
  0.5833333333333357  0.6666666666666643  0.5252211012636536   F   F   F
  0.9166666666666643  0.8333333333333357  0.4141099901525465   F   F   F
  0.8333333333333357  0.6666666666666643  0.5252211012636536   F   F   F
  0.5833333333333357  0.1666666666666643  0.5252211012636536   F   F   F
  0.9166666666666643  0.3333333333333357  0.4141099901525465   F   F   F
  0.3333333333333357  0.4166666666666643  0.5252211012636536   F   F   F
  0.6666666666666643  0.3333333333333357  0.4141099901525465   F   F   F
  0.1666666666666643  0.8333333333333357  0.4141099901525465   F   F   F
  0.4995076133207213  0.0010215223952525  0.6369156420517734   T   T   T
  0.4166666666666643  0.3333333333333357  0.4141099901525465   F   F   F
  0.0833333333333357  0.1666666666666643  0.5252211012636536   F   F   F
  0.2488828689115342  0.4998374559836166  0.6359142170610502   T   T   T
  0.2504106080569014  0.2541926188860682  0.6352997181528295   T   T   T
  0.0833333333333357  0.4166666666666643  0.5252211012636536   F   F   F
  0.4166666666666643  0.0833333333333357  0.4141099901525465   F   F   F
  0.3333333333333357  0.6666666666666643  0.5252211012636536   F   F   F
  0.0833333333333357  0.4166666666666643  0.3585544345969893   F   F   F
  0.2500000000000000  0.2500000000000000  0.4696655457081036   F   F   F
  0.0833333333333357  0.1666666666666643  0.3585544345969893   F   F   F
  0.4166666666666643  0.3333333333333357  0.5807766568192108   F   F   F
  0.2500000000000000  0.5000000000000000  0.4696655457081036   F   F   F
  0.3333333333333357  0.4166666666666643  0.3585544345969893   F   F   F
  0.1666666666666643  0.0833333333333357  0.5807766568192108   F   F   F
  0.5000000000000000  0.2500000000000000  0.4696655457081036   F   F   F
  0.5018121662640540  0.2520666438541540  0.6358812288446857   T   T   T
  0.4166666666666643  0.0833333333333357  0.5807766568192108   F   F   F
  0.1666666666666643  0.0833333333333357  0.4141099901525465   F   F   F
  0.4166666666666643  0.8333333333333357  0.4141099901525465   F   F   F
  0.2504792724209102  0.9987723412763859  0.6353182346824384   T   T   T
  0.9995769608648765  0.5007564647706962  0.6369286192502351   T   T   T
  0.1666666666666643  0.3333333333333357  0.4141099901525465   F   F   F
  0.3333333333333357  0.1666666666666643  0.5252211012636536   F   F   F
  0.2490001319558612  0.7515119021939750  0.6357817342016189   T   T   T
  0.0833333333333357  0.9166666666666643  0.5252211012636536   F   F   F
  0.4166666666666643  0.5833333333333357  0.4141099901525465   F   F   F
  0.0833333333333357  0.9166666666666643  0.3585544345969893   F   F   F
  0.4166666666666643  0.5833333333333357  0.5807766568192108   F   F   F
  0.0833333333333357  0.6666666666666643  0.5252211012636536   F   F   F
  0.2500000000000000  0.7500000000000000  0.4696655457081036   F   F   F
  0.4166666666666643  0.8333333333333357  0.5807766568192108   F   F   F
  0.2500000000000000  0.0000000000000000  0.4696655457081036   F   F   F
  0.3333333333333357  0.9166666666666643  0.3585544345969893   F   F   F
  0.1666666666666643  0.5833333333333357  0.5807766568192108   F   F   F
  0.5000000000000000  0.7500000000000000  0.4696655457081036   F   F   F
  0.5006150880735235  0.7514196230184679  0.6358399270821187   T   T   T
  0.3333333333333357  0.9166666666666643  0.5252211012636536   F   F   F
  0.1666666666666643  0.5833333333333357  0.4141099901525465   F   F   F
  0.0833333333333357  0.6666666666666643  0.3585544345969893   F   F   F
  0.8333333333333357  0.1666666666666643  0.5252211012636536   F   F   F

  0.00000000E+00  0.00000000E+00  0.00000000E+00
  0.00000000E+00  0.00000000E+00  0.00000000E+00
  0.00000000E+00  0.00000000E+00  0.00000000E+00
  0.00000000E+00  0.00000000E+00  0.00000000E+00
  0.00000000E+00  0.00000000E+00  0.00000000E+00
  0.00000000E+00  0.00000000E+00  0.00000000E+00
  0.00000000E+00  0.00000000E+00  0.00000000E+00
  0.00000000E+00  0.00000000E+00  0.00000000E+00
  0.00000000E+00  0.00000000E+00  0.00000000E+00
  0.00000000E+00  0.00000000E+00  0.00000000E+00
  0.00000000E+00  0.00000000E+00  0.00000000E+00
  0.00000000E+00  0.00000000E+00  0.00000000E+00
  0.00000000E+00  0.00000000E+00  0.00000000E+00
  0.00000000E+00  0.00000000E+00  0.00000000E+00
  0.00000000E+00  0.00000000E+00  0.00000000E+00
  0.00000000E+00  0.00000000E+00  0.00000000E+00
  0.00000000E+00  0.00000000E+00  0.00000000E+00
  0.00000000E+00  0.00000000E+00  0.00000000E+00
  0.00000000E+00  0.00000000E+00  0.00000000E+00
  0.00000000E+00  0.00000000E+00  0.00000000E+00
  0.00000000E+00  0.00000000E+00  0.00000000E+00
  0.00000000E+00  0.00000000E+00  0.00000000E+00
  0.00000000E+00  0.00000000E+00  0.00000000E+00
  0.00000000E+00  0.00000000E+00  0.00000000E+00
  0.00000000E+00  0.00000000E+00  0.00000000E+00
  0.00000000E+00  0.00000000E+00  0.00000000E+00
  0.00000000E+00  0.00000000E+00  0.00000000E+00
  0.00000000E+00  0.00000000E+00  0.00000000E+00
  0.00000000E+00  0.00000000E+00  0.00000000E+00
  0.00000000E+00  0.00000000E+00  0.00000000E+00
  0.00000000E+00  0.00000000E+00  0.00000000E+00
  0.00000000E+00  0.00000000E+00  0.00000000E+00
  0.00000000E+00  0.00000000E+00  0.00000000E+00
  0.00000000E+00  0.00000000E+00  0.00000000E+00
  0.00000000E+00  0.00000000E+00  0.00000000E+00
  0.00000000E+00  0.00000000E+00  0.00000000E+00
  0.00000000E+00  0.00000000E+00  0.00000000E+00
  0.00000000E+00  0.00000000E+00  0.00000000E+00
  0.00000000E+00  0.00000000E+00  0.00000000E+00
  0.00000000E+00  0.00000000E+00  0.00000000E+00
  0.00000000E+00  0.00000000E+00  0.00000000E+00
  0.00000000E+00  0.00000000E+00  0.00000000E+00
  0.00000000E+00  0.00000000E+00  0.00000000E+00
  0.00000000E+00  0.00000000E+00  0.00000000E+00
  0.00000000E+00  0.00000000E+00  0.00000000E+00
  0.00000000E+00  0.00000000E+00  0.00000000E+00
  0.00000000E+00  0.00000000E+00  0.00000000E+00
  0.00000000E+00  0.00000000E+00  0.00000000E+00
  0.00000000E+00  0.00000000E+00  0.00000000E+00
  0.00000000E+00  0.00000000E+00  0.00000000E+00
  0.00000000E+00  0.00000000E+00  0.00000000E+00
  0.00000000E+00  0.00000000E+00  0.00000000E+00
  0.00000000E+00  0.00000000E+00  0.00000000E+00
  0.00000000E+00  0.00000000E+00  0.00000000E+00
  0.00000000E+00  0.00000000E+00  0.00000000E+00
  0.00000000E+00  0.00000000E+00  0.00000000E+00
  0.00000000E+00  0.00000000E+00  0.00000000E+00
  0.00000000E+00  0.00000000E+00  0.00000000E+00
  0.00000000E+00  0.00000000E+00  0.00000000E+00
  0.00000000E+00  0.00000000E+00  0.00000000E+00
  0.00000000E+00  0.00000000E+00  0.00000000E+00
  0.00000000E+00  0.00000000E+00  0.00000000E+00
  0.00000000E+00  0.00000000E+00  0.00000000E+00
  0.00000000E+00  0.00000000E+00  0.00000000E+00
  0.00000000E+00  0.00000000E+00  0.00000000E+00
  0.00000000E+00  0.00000000E+00  0.00000000E+00
  0.00000000E+00  0.00000000E+00  0.00000000E+00
  0.00000000E+00  0.00000000E+00  0.00000000E+00
  0.00000000E+00  0.00000000E+00  0.00000000E+00
  0.00000000E+00  0.00000000E+00  0.00000000E+00
  0.00000000E+00  0.00000000E+00  0.00000000E+00
  0.00000000E+00  0.00000000E+00  0.00000000E+00
  0.00000000E+00  0.00000000E+00  0.00000000E+00
  0.00000000E+00  0.00000000E+00  0.00000000E+00
  0.00000000E+00  0.00000000E+00  0.00000000E+00
  0.00000000E+00  0.00000000E+00  0.00000000E+00
  0.00000000E+00  0.00000000E+00  0.00000000E+00
  0.00000000E+00  0.00000000E+00  0.00000000E+00
  0.00000000E+00  0.00000000E+00  0.00000000E+00
  0.00000000E+00  0.00000000E+00  0.00000000E+00
  0.00000000E+00  0.00000000E+00  0.00000000E+00
  0.00000000E+00  0.00000000E+00  0.00000000E+00
  0.00000000E+00  0.00000000E+00  0.00000000E+00
  0.00000000E+00  0.00000000E+00  0.00000000E+00
  0.00000000E+00  0.00000000E+00  0.00000000E+00
  0.00000000E+00  0.00000000E+00  0.00000000E+00
  0.00000000E+00  0.00000000E+00  0.00000000E+00
  0.00000000E+00  0.00000000E+00  0.00000000E+00
  0.00000000E+00  0.00000000E+00  0.00000000E+00
  0.00000000E+00  0.00000000E+00  0.00000000E+00
  0.00000000E+00  0.00000000E+00  0.00000000E+00
  0.00000000E+00  0.00000000E+00  0.00000000E+00
  0.00000000E+00  0.00000000E+00  0.00000000E+00
  0.00000000E+00  0.00000000E+00  0.00000000E+00
  0.00000000E+00  0.00000000E+00  0.00000000E+00
  0.00000000E+00  0.00000000E+00  0.00000000E+00
  0.00000000E+00  0.00000000E+00  0.00000000E+00
  0.00000000E+00  0.00000000E+00  0.00000000E+00
