Pt                                      
   1.0000000000000000     
     8.4637688330671441    0.0000000000000000    0.0000000000000005
    -4.2318844165335747    7.3298388211951195    0.0000000000000005
     0.0000000000000000    0.0000000000000000   34.5531915698098757
  Pt/           
              54
Selective dynamics
Direct
  0.0000000000000000  0.3333333333333357  0.4666666666666686   F   F   F
  0.5555555555555571  0.4444444444444429  0.6000000000000014   F   F   F
  0.3333333333333357  0.0000000000000000  0.4666666666666686   F   F   F
  0.4444444444444429  0.8888888888888857  0.3333333333333357   F   F   F
  0.5555555555555571  0.7777777777777786  0.3999999999999986   F   F   F
  0.3333332682588590 -0.0000000000654573  0.6662653830647411   T   T   T
  0.4444444444444429  0.8888888888888857  0.5333333333333314   F   F   F
  0.5555555555555571  0.7777777777777786  0.6000000000000014   F   F   F
  0.6666666666666643  0.3333333333333357  0.4666666666666686   F   F   F
  0.7777777777777786  0.2222222222222214  0.3333333333333357   F   F   F
  0.8888888888888857  0.1111111111111143  0.3999999999999986   F   F   F
  0.6666665910075255  0.3333333610789532  0.6662653087722337   T   T   T
  0.7777777777777786  0.2222222222222214  0.5333333333333314   F   F   F
  0.8888888888888857  0.1111111111111143  0.6000000000000014   F   F   F
  0.6666666666666643  0.6666666666666643  0.4666666666666686   F   F   F
  0.7777777777777786  0.5555555555555571  0.3333333333333357   F   F   F
  0.8888888888888857  0.4444444444444429  0.3999999999999986   F   F   F
  0.6666665982864762  0.6666667048335614  0.6662654661796155   T   T   T
  0.7777777777777786  0.5555555555555571  0.5333333333333314   F   F   F
  0.8888888888888857  0.4444444444444429  0.6000000000000014   F   F   F
  0.6666666666666643  0.0000000000000000  0.4666666666666686   F   F   F
  0.7777777777777786  0.8888888888888857  0.3333333333333357   F   F   F
  0.8888888888888857  0.7777777777777786  0.3999999999999986   F   F   F
  0.6666665506401519 -0.0000000449352153  0.6662653509937926   T   T   T
  0.4444444444444429  0.5555555555555571  0.5333333333333314   F   F   F
  0.3333333295408207  0.6666667420106797  0.6662654956439685   T   T   T
  0.5555555555555571  0.4444444444444429  0.3999999999999986   F   F   F
  0.4444444444444429  0.5555555555555571  0.3333333333333357   F   F   F
  0.1111111111111143  0.2222222222222214  0.3333333333333357   F   F   F
  0.2222222222222214  0.1111111111111143  0.3999999999999986   F   F   F
 -0.0000000156286346  0.3333333888786461  0.6662652484840982   T   T   T
  0.1111111111111143  0.2222222222222214  0.5333333333333314   F   F   F
  0.2222222222222214  0.1111111111111143  0.6000000000000014   F   F   F
  0.0000000000000000  0.6666666666666643  0.4666666666666686   F   F   F
  0.1111111111111143  0.5555555555555571  0.3333333333333357   F   F   F
  0.2222222222222214  0.4444444444444429  0.3999999999999986   F   F   F
 -0.0000000115759261  0.6666667464011274  0.6662653830754275   T   T   T
  0.1111111111111143  0.5555555555555571  0.5333333333333314   F   F   F
  0.2222222222222214  0.4444444444444429  0.6000000000000014   F   F   F
  0.7777777777777786  0.8888888888888857  0.5333333333333314   F   F   F
  0.0000000000000000  0.0000000000000000  0.4666666666666686   F   F   F
  0.2222222222222214  0.7777777777777786  0.3999999999999986   F   F   F
 -0.0000000645327057  0.0000000008910180  0.6662652891524316   T   T   T
  0.1111111111111143  0.8888888888888857  0.5333333333333314   F   F   F
  0.2222222222222214  0.7777777777777786  0.6000000000000014   F   F   F
  0.3333333333333357  0.3333333333333357  0.4666666666666686   F   F   F
  0.4444444444444429  0.2222222222222214  0.3333333333333357   F   F   F
  0.5555555555555571  0.1111111111111143  0.3999999999999986   F   F   F
  0.3333333194033500  0.3333333995670633  0.6662653525911354   T   T   T
  0.4444444444444429  0.2222222222222214  0.5333333333333314   F   F   F
  0.5555555555555571  0.1111111111111143  0.6000000000000014   F   F   F
  0.3333333333333357  0.6666666666666643  0.4666666666666686   F   F   F
  0.1111111111111143  0.8888888888888857  0.3333333333333357   F   F   F
  0.8888888888888857  0.7777777777777786  0.6000000000000014   F   F   F

  0.00000000E+00  0.00000000E+00  0.00000000E+00
  0.00000000E+00  0.00000000E+00  0.00000000E+00
  0.00000000E+00  0.00000000E+00  0.00000000E+00
  0.00000000E+00  0.00000000E+00  0.00000000E+00
  0.00000000E+00  0.00000000E+00  0.00000000E+00
  0.00000000E+00  0.00000000E+00  0.00000000E+00
  0.00000000E+00  0.00000000E+00  0.00000000E+00
  0.00000000E+00  0.00000000E+00  0.00000000E+00
  0.00000000E+00  0.00000000E+00  0.00000000E+00
  0.00000000E+00  0.00000000E+00  0.00000000E+00
  0.00000000E+00  0.00000000E+00  0.00000000E+00
  0.00000000E+00  0.00000000E+00  0.00000000E+00
  0.00000000E+00  0.00000000E+00  0.00000000E+00
  0.00000000E+00  0.00000000E+00  0.00000000E+00
  0.00000000E+00  0.00000000E+00  0.00000000E+00
  0.00000000E+00  0.00000000E+00  0.00000000E+00
  0.00000000E+00  0.00000000E+00  0.00000000E+00
  0.00000000E+00  0.00000000E+00  0.00000000E+00
  0.00000000E+00  0.00000000E+00  0.00000000E+00
  0.00000000E+00  0.00000000E+00  0.00000000E+00
  0.00000000E+00  0.00000000E+00  0.00000000E+00
  0.00000000E+00  0.00000000E+00  0.00000000E+00
  0.00000000E+00  0.00000000E+00  0.00000000E+00
  0.00000000E+00  0.00000000E+00  0.00000000E+00
  0.00000000E+00  0.00000000E+00  0.00000000E+00
  0.00000000E+00  0.00000000E+00  0.00000000E+00
  0.00000000E+00  0.00000000E+00  0.00000000E+00
  0.00000000E+00  0.00000000E+00  0.00000000E+00
  0.00000000E+00  0.00000000E+00  0.00000000E+00
  0.00000000E+00  0.00000000E+00  0.00000000E+00
  0.00000000E+00  0.00000000E+00  0.00000000E+00
  0.00000000E+00  0.00000000E+00  0.00000000E+00
  0.00000000E+00  0.00000000E+00  0.00000000E+00
  0.00000000E+00  0.00000000E+00  0.00000000E+00
  0.00000000E+00  0.00000000E+00  0.00000000E+00
  0.00000000E+00  0.00000000E+00  0.00000000E+00
  0.00000000E+00  0.00000000E+00  0.00000000E+00
  0.00000000E+00  0.00000000E+00  0.00000000E+00
  0.00000000E+00  0.00000000E+00  0.00000000E+00
  0.00000000E+00  0.00000000E+00  0.00000000E+00
  0.00000000E+00  0.00000000E+00  0.00000000E+00
  0.00000000E+00  0.00000000E+00  0.00000000E+00
  0.00000000E+00  0.00000000E+00  0.00000000E+00
  0.00000000E+00  0.00000000E+00  0.00000000E+00
  0.00000000E+00  0.00000000E+00  0.00000000E+00
  0.00000000E+00  0.00000000E+00  0.00000000E+00
  0.00000000E+00  0.00000000E+00  0.00000000E+00
  0.00000000E+00  0.00000000E+00  0.00000000E+00
  0.00000000E+00  0.00000000E+00  0.00000000E+00
  0.00000000E+00  0.00000000E+00  0.00000000E+00
  0.00000000E+00  0.00000000E+00  0.00000000E+00
  0.00000000E+00  0.00000000E+00  0.00000000E+00
  0.00000000E+00  0.00000000E+00  0.00000000E+00
  0.00000000E+00  0.00000000E+00  0.00000000E+00
