Cu  H  O Pt                             
   1.0000000000000000     
    11.1887137964146977    0.0000000000000000    0.0000000000000007
    -5.5943568982073524    9.6897103833685563    0.0000000000000007
     0.0000000000000000    0.0000000000000000   41.1099595188816593
  Cu/             H/              O/              Pt/           
              12               1               2              84
Selective dynamics
Direct
  0.3333333333333357  0.1666666666666643  0.3585544345969893   F   F   F
  0.6666666666666643  0.8333333333333357  0.5807766568192108   F   F   F
  0.0000000000000000  0.0000000000000000  0.4696655457081036   F   F   F
  0.8333333333333357  0.6666666666666643  0.3585544345969893   F   F   F
  0.6666666666666643  0.3333333333333357  0.5807766568192108   F   F   F
  0.8333333333333357  0.1666666666666643  0.3585544345969893   F   F   F
  0.1666666666666643  0.8333333333333357  0.5807766568192108   F   F   F
  0.5000000000000000  0.0000000000000000  0.4696655457081036   F   F   F
  0.3333333333333357  0.6666666666666643  0.3585544345969893   F   F   F
  0.0000000000000000  0.5000000000000000  0.4696655457081036   F   F   F
  0.1666666666666643  0.3333333333333357  0.5807766568192108   F   F   F
  0.5000000000000000  0.5000000000000000  0.4696655457081036   F   F   F
  0.3351400594885979  0.3511071042631443  0.6975501360817292   T   T   T
  0.2456037136979942  0.4540765723332886  0.6843700346846229   T   T   T
  0.2428945540138161  0.3202381556016854  0.6881532424960843   T   T   T
  0.5074205556715508  0.5039703587484329  0.6356851956397046   T   T   T
  0.7485987846265525  0.2510552481373347  0.6356836667598853   T   T   T
  0.5833333333333357  0.4166666666666643  0.5252211012636536   F   F   F
  0.9166666666666643  0.0833333333333357  0.4141099901525465   F   F   F
  0.5833333333333357  0.4166666666666643  0.3585544345969893   F   F   F
  0.9166666666666643  0.0833333333333357  0.5807766568192108   F   F   F
  0.7500000000000000  0.2500000000000000  0.4696655457081036   F   F   F
  0.9166666666666643  0.3333333333333357  0.5807766568192108   F   F   F
  0.7500000000000000  0.5000000000000000  0.4696655457081036   F   F   F
  0.8333333333333357  0.4166666666666643  0.3585544345969893   F   F   F
  0.6666666666666643  0.0833333333333357  0.5807766568192108   F   F   F
  0.0000000000000000  0.2500000000000000  0.4696655457081036   F   F   F
  0.9955751604620138  0.2476060940280390  0.6349556095443681   T   T   T
  0.8333333333333357  0.4166666666666643  0.5252211012636536   F   F   F
  0.6666666666666643  0.0833333333333357  0.4141099901525465   F   F   F
  0.5833333333333357  0.1666666666666643  0.3585544345969893   F   F   F
  0.9977580873470023  0.9977789945066452  0.6366723407331144   T   T   T
  0.6666666666666643  0.8333333333333357  0.4141099901525465   F   F   F
  0.8333333333333357  0.6666666666666643  0.5252211012636536   F   F   F
  0.7507550466061508  0.7522464921024730  0.6358237390489661   T   T   T
  0.5833333333333357  0.9166666666666643  0.5252211012636536   F   F   F
  0.9166666666666643  0.5833333333333357  0.4141099901525465   F   F   F
  0.5833333333333357  0.9166666666666643  0.3585544345969893   F   F   F
  0.9166666666666643  0.5833333333333357  0.5807766568192108   F   F   F
  0.7500000000000000  0.7500000000000000  0.4696655457081036   F   F   F
  0.5833333333333357  0.6666666666666643  0.3585544345969893   F   F   F
  0.9166666666666643  0.8333333333333357  0.5807766568192108   F   F   F
  0.7505350158360176  0.4985084937741120  0.6359500478078796   T   T   T
  0.7500000000000000  0.0000000000000000  0.4696655457081036   F   F   F
  0.6666666666666643  0.5833333333333357  0.5807766568192108   F   F   F
  0.0000000000000000  0.7500000000000000  0.4696655457081036   F   F   F
  0.0022951947278667  0.7512884193778756  0.6357572880917213   T   T   T
  0.8333333333333357  0.9166666666666643  0.5252211012636536   F   F   F
  0.6666666666666643  0.5833333333333357  0.4141099901525465   F   F   F
  0.7483281850635145  0.9980639111951661  0.6358136604462298   T   T   T
  0.5833333333333357  0.6666666666666643  0.5252211012636536   F   F   F
  0.9166666666666643  0.8333333333333357  0.4141099901525465   F   F   F
  0.8333333333333357  0.9166666666666643  0.3585544345969893   F   F   F
  0.5833333333333357  0.1666666666666643  0.5252211012636536   F   F   F
  0.3333333333333357  0.4166666666666643  0.5252211012636536   F   F   F
  0.8333333333333357  0.1666666666666643  0.5252211012636536   F   F   F
  0.1666666666666643  0.8333333333333357  0.4141099901525465   F   F   F
  0.4999525449678588  0.0006282560475541  0.6367845455894122   T   T   T
  0.4166666666666643  0.3333333333333357  0.4141099901525465   F   F   F
  0.0833333333333357  0.1666666666666643  0.5252211012636536   F   F   F
  0.2511040210236035  0.4994602965164965  0.6364272664384016   T   T   T
  0.2475751640687082  0.2476696786872508  0.6356505605302021   T   T   T
  0.0833333333333357  0.4166666666666643  0.5252211012636536   F   F   F
  0.4166666666666643  0.0833333333333357  0.4141099901525465   F   F   F
  0.3333333333333357  0.6666666666666643  0.5252211012636536   F   F   F
  0.0833333333333357  0.4166666666666643  0.3585544345969893   F   F   F
  0.2500000000000000  0.2500000000000000  0.4696655457081036   F   F   F
  0.0833333333333357  0.1666666666666643  0.3585544345969893   F   F   F
  0.4166666666666643  0.3333333333333357  0.5807766568192108   F   F   F
  0.2500000000000000  0.5000000000000000  0.4696655457081036   F   F   F
  0.3333333333333357  0.4166666666666643  0.3585544345969893   F   F   F
  0.1666666666666643  0.0833333333333357  0.5807766568192108   F   F   F
  0.5000000000000000  0.2500000000000000  0.4696655457081036   F   F   F
  0.5033482355305287  0.2514019310998887  0.6355046250994284   T   T   T
  0.4166666666666643  0.0833333333333357  0.5807766568192108   F   F   F
  0.4166666666666643  0.8333333333333357  0.4141099901525465   F   F   F
  0.0833333333333357  0.6666666666666643  0.5252211012636536   F   F   F
  0.2489565838284060  0.9973047543265272  0.6355904036880167   T   T   T
  0.6666666666666643  0.3333333333333357  0.4141099901525465   F   F   F
  0.9990369928446782  0.5009948603360080  0.6362133844800094   T   T   T
  0.1666666666666643  0.3333333333333357  0.4141099901525465   F   F   F
  0.3333333333333357  0.1666666666666643  0.5252211012636536   F   F   F
  0.2493577807781238  0.7524488859147744  0.6354952605322820   T   T   T
  0.0833333333333357  0.9166666666666643  0.5252211012636536   F   F   F
  0.4166666666666643  0.5833333333333357  0.4141099901525465   F   F   F
  0.0833333333333357  0.9166666666666643  0.3585544345969893   F   F   F
  0.4166666666666643  0.5833333333333357  0.5807766568192108   F   F   F
  0.2500000000000000  0.7500000000000000  0.4696655457081036   F   F   F
  0.0833333333333357  0.6666666666666643  0.3585544345969893   F   F   F
  0.4166666666666643  0.8333333333333357  0.5807766568192108   F   F   F
  0.2500000000000000  0.0000000000000000  0.4696655457081036   F   F   F
  0.3333333333333357  0.9166666666666643  0.3585544345969893   F   F   F
  0.1666666666666643  0.5833333333333357  0.5807766568192108   F   F   F
  0.5000000000000000  0.7500000000000000  0.4696655457081036   F   F   F
  0.5046765364738280  0.7538144130518449  0.6352996213519360   T   T   T
  0.3333333333333357  0.9166666666666643  0.5252211012636536   F   F   F
  0.1666666666666643  0.5833333333333357  0.4141099901525465   F   F   F
  0.1666666666666643  0.0833333333333357  0.4141099901525465   F   F   F
  0.9166666666666643  0.3333333333333357  0.4141099901525465   F   F   F

  0.00000000E+00  0.00000000E+00  0.00000000E+00
  0.00000000E+00  0.00000000E+00  0.00000000E+00
  0.00000000E+00  0.00000000E+00  0.00000000E+00
  0.00000000E+00  0.00000000E+00  0.00000000E+00
  0.00000000E+00  0.00000000E+00  0.00000000E+00
  0.00000000E+00  0.00000000E+00  0.00000000E+00
  0.00000000E+00  0.00000000E+00  0.00000000E+00
  0.00000000E+00  0.00000000E+00  0.00000000E+00
  0.00000000E+00  0.00000000E+00  0.00000000E+00
  0.00000000E+00  0.00000000E+00  0.00000000E+00
  0.00000000E+00  0.00000000E+00  0.00000000E+00
  0.00000000E+00  0.00000000E+00  0.00000000E+00
  0.00000000E+00  0.00000000E+00  0.00000000E+00
  0.00000000E+00  0.00000000E+00  0.00000000E+00
  0.00000000E+00  0.00000000E+00  0.00000000E+00
  0.00000000E+00  0.00000000E+00  0.00000000E+00
  0.00000000E+00  0.00000000E+00  0.00000000E+00
  0.00000000E+00  0.00000000E+00  0.00000000E+00
  0.00000000E+00  0.00000000E+00  0.00000000E+00
  0.00000000E+00  0.00000000E+00  0.00000000E+00
  0.00000000E+00  0.00000000E+00  0.00000000E+00
  0.00000000E+00  0.00000000E+00  0.00000000E+00
  0.00000000E+00  0.00000000E+00  0.00000000E+00
  0.00000000E+00  0.00000000E+00  0.00000000E+00
  0.00000000E+00  0.00000000E+00  0.00000000E+00
  0.00000000E+00  0.00000000E+00  0.00000000E+00
  0.00000000E+00  0.00000000E+00  0.00000000E+00
  0.00000000E+00  0.00000000E+00  0.00000000E+00
  0.00000000E+00  0.00000000E+00  0.00000000E+00
  0.00000000E+00  0.00000000E+00  0.00000000E+00
  0.00000000E+00  0.00000000E+00  0.00000000E+00
  0.00000000E+00  0.00000000E+00  0.00000000E+00
  0.00000000E+00  0.00000000E+00  0.00000000E+00
  0.00000000E+00  0.00000000E+00  0.00000000E+00
  0.00000000E+00  0.00000000E+00  0.00000000E+00
  0.00000000E+00  0.00000000E+00  0.00000000E+00
  0.00000000E+00  0.00000000E+00  0.00000000E+00
  0.00000000E+00  0.00000000E+00  0.00000000E+00
  0.00000000E+00  0.00000000E+00  0.00000000E+00
  0.00000000E+00  0.00000000E+00  0.00000000E+00
  0.00000000E+00  0.00000000E+00  0.00000000E+00
  0.00000000E+00  0.00000000E+00  0.00000000E+00
  0.00000000E+00  0.00000000E+00  0.00000000E+00
  0.00000000E+00  0.00000000E+00  0.00000000E+00
  0.00000000E+00  0.00000000E+00  0.00000000E+00
  0.00000000E+00  0.00000000E+00  0.00000000E+00
  0.00000000E+00  0.00000000E+00  0.00000000E+00
  0.00000000E+00  0.00000000E+00  0.00000000E+00
  0.00000000E+00  0.00000000E+00  0.00000000E+00
  0.00000000E+00  0.00000000E+00  0.00000000E+00
  0.00000000E+00  0.00000000E+00  0.00000000E+00
  0.00000000E+00  0.00000000E+00  0.00000000E+00
  0.00000000E+00  0.00000000E+00  0.00000000E+00
  0.00000000E+00  0.00000000E+00  0.00000000E+00
  0.00000000E+00  0.00000000E+00  0.00000000E+00
  0.00000000E+00  0.00000000E+00  0.00000000E+00
  0.00000000E+00  0.00000000E+00  0.00000000E+00
  0.00000000E+00  0.00000000E+00  0.00000000E+00
  0.00000000E+00  0.00000000E+00  0.00000000E+00
  0.00000000E+00  0.00000000E+00  0.00000000E+00
  0.00000000E+00  0.00000000E+00  0.00000000E+00
  0.00000000E+00  0.00000000E+00  0.00000000E+00
  0.00000000E+00  0.00000000E+00  0.00000000E+00
  0.00000000E+00  0.00000000E+00  0.00000000E+00
  0.00000000E+00  0.00000000E+00  0.00000000E+00
  0.00000000E+00  0.00000000E+00  0.00000000E+00
  0.00000000E+00  0.00000000E+00  0.00000000E+00
  0.00000000E+00  0.00000000E+00  0.00000000E+00
  0.00000000E+00  0.00000000E+00  0.00000000E+00
  0.00000000E+00  0.00000000E+00  0.00000000E+00
  0.00000000E+00  0.00000000E+00  0.00000000E+00
  0.00000000E+00  0.00000000E+00  0.00000000E+00
  0.00000000E+00  0.00000000E+00  0.00000000E+00
  0.00000000E+00  0.00000000E+00  0.00000000E+00
  0.00000000E+00  0.00000000E+00  0.00000000E+00
  0.00000000E+00  0.00000000E+00  0.00000000E+00
  0.00000000E+00  0.00000000E+00  0.00000000E+00
  0.00000000E+00  0.00000000E+00  0.00000000E+00
  0.00000000E+00  0.00000000E+00  0.00000000E+00
  0.00000000E+00  0.00000000E+00  0.00000000E+00
  0.00000000E+00  0.00000000E+00  0.00000000E+00
  0.00000000E+00  0.00000000E+00  0.00000000E+00
  0.00000000E+00  0.00000000E+00  0.00000000E+00
  0.00000000E+00  0.00000000E+00  0.00000000E+00
  0.00000000E+00  0.00000000E+00  0.00000000E+00
  0.00000000E+00  0.00000000E+00  0.00000000E+00
  0.00000000E+00  0.00000000E+00  0.00000000E+00
  0.00000000E+00  0.00000000E+00  0.00000000E+00
  0.00000000E+00  0.00000000E+00  0.00000000E+00
  0.00000000E+00  0.00000000E+00  0.00000000E+00
  0.00000000E+00  0.00000000E+00  0.00000000E+00
  0.00000000E+00  0.00000000E+00  0.00000000E+00
  0.00000000E+00  0.00000000E+00  0.00000000E+00
  0.00000000E+00  0.00000000E+00  0.00000000E+00
  0.00000000E+00  0.00000000E+00  0.00000000E+00
  0.00000000E+00  0.00000000E+00  0.00000000E+00
  0.00000000E+00  0.00000000E+00  0.00000000E+00
  0.00000000E+00  0.00000000E+00  0.00000000E+00
  0.00000000E+00  0.00000000E+00  0.00000000E+00
