 H                                      
   1.0000000000000000     
    20.0000000000000000    0.0000000000000000    0.0000000000000000
     0.0000000000000000   20.0000000000000000    0.0000000000000000
     0.0000000000000000    0.0000000000000000   20.0000000000000000
  H             
     2
Direct
  0.4813180105132417  0.4999999999963052  0.4999999999273328
  0.5186819894867583  0.5000000000036948  0.4990000000726744

  0.00000000E+00  0.00000000E+00  0.00000000E+00
  0.00000000E+00  0.00000000E+00  0.00000000E+00
