 vasp.6.4.3 19Mar24 (build Oct 31 2024 19:09:51) complex                         
 executed on             LinuxGNU date 2026.03.16  21:13:58
 running  128 mpi-ranks, with    1 threads/rank, on    1 nodes
 distrk:  each k-point on  128 cores,    1 groups
 distr:  one band on NCORE=   4 cores,   32 groups


--------------------------------------------------------------------------------------------------------


 INCAR:
   SYSTEM = H2 molecule frequencies (RPBE-D3)
   PREC = Normal
   ENCUT = 400
   EDIFF = 1E-7
   GGA = RP
   IVDW = 11
   ISPIN = 1
   NELM = 300
   ISMEAR = 0
   SIGMA = 0.01
   IBRION = 5
   NFREE = 2
   POTIM = 0.02
   NSW = 1
   ISTART = 1
   ICHARG = 0
   ISYM = 0
   LREAL = .FALSE.
   ALGO = Normal
   LDIPOL = .FALSE.
   LWAVE = .FALSE.
   LCHARG = .FALSE.
   LASPH = .TRUE.
   ADDGRID = .TRUE.
   NCORE = 4

 POTCAR:    PAW_PBE H 15Jun2001                   
 POTCAR:    PAW_PBE H 15Jun2001                   
   VRHFIN =H: ultrasoft test                                                                        
   LEXCH  = PE                                                                                      
   EATOM  =    12.4884 eV,    0.9179 Ry                                                             
                                                                                                    
   TITEL  = PAW_PBE H 15Jun2001                                                                     
   LULTRA =        F    use ultrasoft PP ?                                                          
   IUNSCR =        0    unscreen: 0-lin 1-nonlin 2-no                                               
   RPACOR =    0.000    partial core radius                                                         
   POMASS =    1.000; ZVAL   =    1.000    mass and valenz                                          
   RCORE  =    1.100    outmost cutoff radius                                                       
   RWIGS  =    0.700; RWIGS  =    0.370    wigner-seitz radius (au A)                               
   ENMAX  =  250.000; ENMIN  =  200.000 eV                                                          
   RCLOC  =    0.701    cutoff for local pot                                                        
   LCOR   =        T    correct aug charges                                                         
   LPAW   =        T    paw PP                                                                      
   EAUG   =  400.000                                                                                
   RMAX   =    1.123    core radius for proj-oper                                                   
   RAUG   =    1.200    factor for augmentation sphere                                              
   RDEP   =    1.112    radius for radial grids                                                     
   RDEPT  =    0.926    core radius for aug-charge                                                  
                                                                                                    
   Atomic configuration                                                                             
    2 entries                                                                                       
     n  l   j            E        occ.                                                              
     1  0  0.50        -6.4927   1.0000                                                             
     2  1  0.50        -3.4015   0.0000                                                             
   Description                                                                                      
     l       E           TYP  RCUT    TYP  RCUT                                                     
     0     -6.4927494     23  1.100                                                                 
     0      6.8029130     23  1.100                                                                 
     1     -4.0817478     23  1.100                                                                 
  local pseudopotential read in
  atomic valenz-charges read in
  non local Contribution for L=           0  read in
    real space projection operators read in
  non local Contribution for L=           0  read in
    real space projection operators read in
  non local Contribution for L=           1  read in
    real space projection operators read in
    PAW grid and wavefunctions read in

   number of l-projection  operators is LMAX  =           3
   number of lm-projection operators is LMMAX =           5

 -----------------------------------------------------------------------------
|                                                                             |
|               ----> ADVICE to this user running VASP <----                  |
|                                                                             |
|     You enforced a specific xc type in the INCAR file but a different       |
|     type was found in the POTCAR file.                                      |
|     I HOPE YOU KNOW WHAT YOU ARE DOING!                                     |
|                                                                             |
 -----------------------------------------------------------------------------

  PAW_PBE H 15Jun2001                   :
 energy of atom  1       EATOM=  -12.4884
 kinetic energy error for atom=    0.0098 (will be added to EATOM!!)


 POSCAR:  H
  positions in direct lattice
  velocities in cartesian coordinates
 IVDW         = 11
 VDW_S6       =    1.0000
 VDW_S8       =    0.5140
 VDW_SR       =    0.8720
 VDW_RADIUS   =   50.2022 A
 VDW_CNRADIUS =   21.1671 A


 exchange-correlation table for RP
   RHO(1)=    0.500       N(1)  =     2000
   RHO(2)=  100.500       N(2)  =     4000



--------------------------------------------------------------------------------------------------------


 ion  position               nearest neighbor table
   1  0.481  0.500  0.500-   2 0.75
   2  0.519  0.500  0.500-   1 0.75


IMPORTANT INFORMATION: All symmetrisations will be switched off!
NOSYMM: (Re-)initialisation of all symmetry stuff for point group C_1.


----------------------------------------------------------------------------------------

                                     Primitive cell                                     

  volume of cell :    8000.0000

  direct lattice vectors                    reciprocal lattice vectors
    20.000000000  0.000000000  0.000000000     0.050000000  0.000000000  0.000000000
     0.000000000 20.000000000  0.000000000     0.000000000  0.050000000  0.000000000
     0.000000000  0.000000000 20.000000000     0.000000000  0.000000000  0.050000000

  length of vectors
    20.000000000 20.000000000 20.000000000     0.050000000  0.050000000  0.050000000

  position of ions in fractional coordinates (direct lattice)
     0.481318011  0.500000000  0.500000000
     0.518681989  0.500000000  0.500000000

  ion indices of the primitive-cell ions
   primitive index   ion index
                 1           1
                 2           2

----------------------------------------------------------------------------------------



 KPOINTS: Gamma only                              

Automatic generation of k-mesh.
 Grid dimensions read from file:
 generate k-points for:    1    1    1

 Generating k-lattice:

  Cartesian coordinates                     Fractional coordinates (reciprocal lattice)
     0.050000000  0.000000000  0.000000000     1.000000000  0.000000000  0.000000000
     0.000000000  0.050000000  0.000000000     0.000000000  1.000000000  0.000000000
     0.000000000  0.000000000  0.050000000     0.000000000  0.000000000  1.000000000

  Length of vectors
     0.050000000  0.050000000  0.050000000

  Shift w.r.t. Gamma in fractional coordinates (k-lattice)
     0.000000000  0.000000000  0.000000000

 
 Subroutine IBZKPT returns following result:
 ===========================================
 
 Found      1 irreducible k-points:
 
 Following reciprocal coordinates:
            Coordinates               Weight
  0.000000  0.000000  0.000000      1.000000
 
 Following cartesian coordinates:
            Coordinates               Weight
  0.000000  0.000000  0.000000      1.000000
 
 
 Subroutine IBZKPT_HF returns following result:
 ==============================================
 
 Found      1 k-points in 1st BZ
 the following      1 k-points will be used (e.g. in the exchange kernel)
 Following reciprocal coordinates:   # in IRBZ
  0.000000  0.000000  0.000000    1.00000000   1 t-inv F


--------------------------------------------------------------------------------------------------------




 Dimension of arrays:
   k-points           NKPTS =      1   k-points in BZ     NKDIM =      1   number of bands    NBANDS=     32
   number of dos      NEDOS =    301   number of ions     NIONS =      2
   non local maximal  LDIM  =      3   non local SUM 2l+1 LMDIM =      5
   total plane-waves  NPLWV = 941192
   max r-space proj   IRMAX =      1   max aug-charges    IRDMAX=   4774
   dimension x,y,z NGX =    98 NGY =   98 NGZ =   98
   dimension x,y,z NGXF=   196 NGYF=  196 NGZF=  196
   support grid    NGXF=   392 NGYF=  392 NGZF=  392
   ions per type =               2
   NGX,Y,Z   is equivalent  to a cutoff of   8.15,  8.15,  8.15 a.u.
   NGXF,Y,Z  is equivalent  to a cutoff of  16.29, 16.29, 16.29 a.u.

 SYSTEM =  H2 molecule frequencies (RPBE-D3)       
 POSCAR =   H                                      

 Startparameter for this run:
   NWRITE =      2    write-flag & timer
   PREC   = normal    normal or accurate (medium, high low for compatibility)
   ISTART =      0    job   : 0-new  1-cont  2-samecut
   ICHARG =      2    charge: 1-file 2-atom 10-const
   ISPIN  =      1    spin polarized calculation?
   LNONCOLLINEAR =      F non collinear calculations
   LSORBIT =      F    spin-orbit coupling
   INIWAV =      1    electr: 0-lowe 1-rand  2-diag
   LASPH  =      T    aspherical Exc in radial PAW
 Electronic Relaxation 1
   ENCUT  =  400.0 eV  29.40 Ry    5.42 a.u.  32.61 32.61 32.61*2*pi/ulx,y,z
   ENINI  =  400.0     initial cutoff
   ENAUG  =  400.0 eV  augmentation charge cutoff
   NELM   =    300;   NELMIN=  2; NELMDL=  0     # of ELM steps 
   EDIFF  = 0.1E-06   stopping-criterion for ELM
   LREAL  =      F    real-space projection
   NLSPLINE    = F    spline interpolate recip. space projectors
   LCOMPAT=      F    compatible to vasp.4.4
   GGA_COMPAT  = T    GGA compatible to vasp.4.4-vasp.4.6
   LMAXPAW     = -100 max onsite density
   LMAXMIX     =    2 max onsite mixed and CHGCAR
   VOSKOWN=      0    Vosko Wilk Nusair interpolation
   ROPT   =    0.00000
 Ionic relaxation
   EDIFFG = 0.1E-05   stopping-criterion for IOM
   NSW    =     61    number of steps for IOM
   NBLOCK =      1;   KBLOCK =     61    inner block; outer block 
   IBRION =      5    ionic relax: 0-MD 1-quasi-New 2-CG
   NFREE  =      2    steps in history (QN), initial steepest desc. (CG)
   ISIF   =      2    stress and relaxation
   IWAVPR =     11    prediction:  0-non 1-charg 2-wave 3-comb
   ISYM   =      0    0-nonsym 1-usesym 2-fastsym
   LCORR  =      T    Harris-Foulkes like correction to forces

   POTIM  = 0.0200    time-step for ionic-motion
   TEIN   =    0.0    initial temperature
   TEBEG  =    0.0;   TEEND  =   0.0 temperature during run
   SMASS  =  -3.00    Nose mass-parameter (am)
   estimated Nose-frequenzy (Omega)   =  0.10E-29 period in steps = 0.31E+48 mass=  -0.914E-26a.u.
   SCALEE = 1.0000    scale energy and forces
   NPACO  =    256;   APACO  = 10.0  distance and # of slots for P.C.
   PSTRESS=    0.0 pullay stress

  Mass of Ions in am
   POMASS =   1.00
  Ionic Valenz
   ZVAL   =   1.00
  Atomic Wigner-Seitz radii
   RWIGS  =  -1.00
  virtual crystal weights 
   VCA    =   1.00
   NELECT =       2.0000    total number of electrons
   NUPDOWN=      -1.0000    fix difference up-down

 DOS related values:
   EMIN   =  10.00;   EMAX   =-10.00  energy-range for DOS
   EFERMI =   0.00;   METHOD = LEGACY      
   ISMEAR =     0;   SIGMA  =   0.01  broadening in eV -4-tet -1-fermi 0-gaus

 Electronic relaxation 2 (details)
   IALGO  =     38    algorithm
   LDIAG  =      T    sub-space diagonalisation (order eigenvalues)
   LSUBROT=      F    optimize rotation matrix (better conditioning)
   TURBO    =      0    0=normal 1=particle mesh
   IRESTART =      0    0=no restart 2=restart with 2 vectors
   NREBOOT  =      0    no. of reboots
   NMIN     =      0    reboot dimension
   EREF     =   0.00    reference energy to select bands
   IMIX   =      4    mixing-type and parameters
     AMIX     =   0.40;   BMIX     =  1.00
     AMIX_MAG =   1.60;   BMIX_MAG =  1.00
     AMIN     =   0.10
     WC   =   100.;   INIMIX=   1;  MIXPRE=   1;  MAXMIX= -45

 Intra band minimization:
   WEIMIN = 0.0010     energy-eigenvalue tresh-hold
   EBREAK =  0.78E-09  absolut break condition
   DEPER  =   0.30     relativ break condition  

   TIME   =   0.40     timestep for ELM

  volume/ion in A,a.u.               =    4000.00     26993.33
  Fermi-wavevector in a.u.,A,eV,Ry     =   0.103131  0.194889  0.144711  0.010636
  Thomas-Fermi vector in A             =   0.684775

 Write flags
   LWAVE        =      F    write WAVECAR
   LDOWNSAMPLE  =      F    k-point downsampling of WAVECAR
   LCHARG       =      F    write CHGCAR
   LVTOT        =      F    write LOCPOT, total local potential
   LVHAR        =      F    write LOCPOT, Hartree potential only
   WRT_POTENTIAL= false  ! write potential to hdf5 file
   LELF         =      F    write electronic localiz. function (ELF)
   LORBIT       =      0    0 simple, 1 ext, 2 COOP (PROOUT), +10 PAW based schemes


 Dipole corrections
   LMONO      =      F    monopole corrections only (constant potential shift)
   LDIPOL     =      F    correct potential (dipole corrections)
   IDIPOL     =      0    1-x, 2-y, 3-z, 4-all directions 
   EPSILON    =  1.0000000 bulk dielectric constant
   LVACPOTAV  =      F  vacuum potentials using an averaging scheme for the charge density
   VACPOTFLAT =  0.1000000 required flatness to determine vacuum potential
 Exchange correlation treatment:
   GGA     = RP    functional components
   XC_C    = 1    coefficients multiplying the functional components
   LIBXC   =     F    Libxc                    
   VOSKOWN =     0    Vosko Wilk Nusair interpolation
   LHFCALC =     F    Hartree Fock is set to
   LHFONE  =     F    Hartree Fock one center treatment
   AEXX    =    0.0000 exact exchange contribution

 Parameters of functionals:
   RP:
     No parameter

 Van der Waals corrections
   IVDW    =    11    specifies the selected vdW correction

 Linear response parameters
   LEPSILON=     F    determine dielectric tensor
   LRPA    =     F    only Hartree local field effects (RPA)
   LNABLA  =     F    use nabla operator in PAW spheres
   LVEL    =     F    velocity operator in full k-point grid
   CSHIFT  =0.1000    complex shift for real part using Kramers Kronig
   OMEGAMAX=  -1.0    maximum frequency
   DEG_THRESHOLD= 0.2000000E-02 threshold for treating states as degnerate
   RTIME   =   -0.100 relaxation time in fs
  (WPLASMAI=    0.000 imaginary part of plasma frequency in eV, 0.658/RTIME)
   DFIELD  = 0.0000000 0.0000000 0.0000000 field for delta impulse in time

  Optional k-point grid parameters
   LKPOINTS_OPT  =     F    use optional k-point grid
   KPOINTS_OPT_MODE=     1    mode for optional k-point grid

 Orbital magnetization related:
   ORBITALMAG=     F  switch on orbital magnetization
   LCHIMAG   =     F  perturbation theory with respect to B field
   DQ        =  0.001000  dq finite difference perturbation B field
   LLRAUG    =     F  two centre corrections for induced B field
   LBONE     =     F  B-component reconstruction in AE one-centre
   LVGVCALC  =     T  calculate vGv susceptibility
   LVGVAPPL  =     F  apply vGv susceptibility instead of pGv for G=0

 Random number generation:
   RANDOM_GENERATOR = DEFAULT
   PCG_SEED         = not used


--------------------------------------------------------------------------------------------------------


 finite differences
 charge density and potential will be updated during run
 non-spin polarized calculation
 Variant of blocked Davidson
 Davidson routine will perform the subspace rotation
 perform sub-space diagonalisation
    after iterative eigenvector-optimisation
 modified Broyden-mixing scheme, WC =      100.0
 initial mixing is a Kerker type mixing with AMIX =  0.4000 and BMIX =      1.0000
 Hartree-type preconditioning will be used
 using additional bands           31
 reciprocal scheme for non local part
 calculate Harris-corrections to forces   (improved forces if not selfconsistent)
 use gradient corrections 
 use of overlap-Matrix (Vanderbilt PP)
 Gauss-broadening in eV      SIGMA  =   0.01


--------------------------------------------------------------------------------------------------------


  energy-cutoff  :      400.00
  volume of cell :     8000.00
      direct lattice vectors                 reciprocal lattice vectors
    20.000000000  0.000000000  0.000000000     0.050000000  0.000000000  0.000000000
     0.000000000 20.000000000  0.000000000     0.000000000  0.050000000  0.000000000
     0.000000000  0.000000000 20.000000000     0.000000000  0.000000000  0.050000000

  length of vectors
    20.000000000 20.000000000 20.000000000     0.050000000  0.050000000  0.050000000



 k-points in units of 2pi/SCALE and weight: Gamma only                              
   0.00000000  0.00000000  0.00000000       1.000

 k-points in reciprocal lattice and weights: Gamma only                              
   0.00000000  0.00000000  0.00000000       1.000

 position of ions in fractional coordinates (direct lattice) 
   0.48131801  0.50000000  0.50000000
   0.51868199  0.50000000  0.50000000

 position of ions in cartesian coordinates  (Angst):
   9.62636021 10.00000000 10.00000000
  10.37363979 10.00000000 10.00000000



--------------------------------------------------------------------------------------------------------


 k-point     1 :   0.0000 0.0000 0.0000  plane waves:  145165

 maximum and minimum number of plane-waves per node :     36308    36275

 maximum number of plane-waves:    145165
 maximum index in each direction: 
   IXMAX=   32   IYMAX=   32   IZMAX=   32
   IXMIN=  -32   IYMIN=  -32   IZMIN=  -32


 parallel 3D FFT for wavefunctions:
    minimum data exchange during FFTs selected (reduces bandwidth)
 parallel 3D FFT for charge:
    minimum data exchange during FFTs selected (reduces bandwidth)


 total amount of memory used by VASP MPI-rank0    64572. kBytes
=======================================================================

   base      :      30000. kBytes
   nonl-proj :       2615. kBytes
   fftplans  :      18019. kBytes
   grid      :      13356. kBytes
   one-center:          1. kBytes
   wavefun   :        581. kBytes

     INWAV:  cpu time      0.0000: real time      0.0000
 Broyden mixing: mesh for mixing (old mesh)
   NGX = 65   NGY = 65   NGZ = 65
  (NGX  =196   NGY  =196   NGZ  =196)
  gives a total of 274625 points

 initial charge density was supplied:
 charge density of overlapping atoms calculated
 number of electron       2.0000000 magnetization 
 keeping initial charge density in first step


--------------------------------------------------------------------------------------------------------


 Maximum index for augmentation-charges            0 (set IRDMAX)


--------------------------------------------------------------------------------------------------------


 First call to EWALD:  gamma=   0.089
 Maximum number of real-space cells 3x 3x 3
 Maximum number of reciprocal cells 3x 3x 3

    FEWALD:  cpu time      0.0012: real time      0.0012


--------------------------------------- Ionic step        1  -------------------------------------------




--------------------------------------- Iteration      1(   1)  ---------------------------------------


    POTLOK:  cpu time      0.0689: real time      0.0701
    SETDIJ:  cpu time      0.0883: real time      0.0900
     EDDAV:  cpu time      0.2396: real time      0.2446
       DOS:  cpu time      0.0014: real time      0.0017
    --------------------------------------------
      LOOP:  cpu time      0.3982: real time      0.4063

 eigenvalue-minimisations  :    96
 total energy-change (2. order) :-0.3548108E+01  (-0.2861453E+02)
 number of electron       2.0000000 magnetization 
 augmentation part        2.0000000 magnetization 

 Free energy of the ion-electron system (eV)
  ---------------------------------------------------
  alpha Z        PSCENC =         0.00121808
  Ewald energy   TEWEN  =        15.18607296
  -Hartree energ DENC   =       -24.60310816
  -exchange      EXHF   =         0.00000000
  -V(xc)+E(xc)   XCENC  =         4.24448361
  PAW double counting   =         4.09787275       -4.11636859
  entropy T*S    EENTRO =        -0.00000000
  eigenvalues    EBANDS =       -23.42533713
  atomic energy  EATOM  =        25.06705842
  Solvation  Ediel_sol  =         0.00000000
  ---------------------------------------------------
  free energy    TOTEN  =        -3.54810807 eV

  energy without entropy =       -3.54810807  energy(sigma->0) =       -3.54810807


--------------------------------------------------------------------------------------------------------




--------------------------------------- Iteration      1(   2)  ---------------------------------------


     EDDAV:  cpu time      0.1642: real time      0.1664
       DOS:  cpu time      0.0005: real time      0.0006
    --------------------------------------------
      LOOP:  cpu time      0.1647: real time      0.1670

 eigenvalue-minimisations  :    64
 total energy-change (2. order) :-0.4088205E+01  (-0.4088205E+01)
 number of electron       2.0000000 magnetization 
 augmentation part        2.0000000 magnetization 

 Free energy of the ion-electron system (eV)
  ---------------------------------------------------
  alpha Z        PSCENC =         0.00121808
  Ewald energy   TEWEN  =        15.18607296
  -Hartree energ DENC   =       -24.60310816
  -exchange      EXHF   =         0.00000000
  -V(xc)+E(xc)   XCENC  =         4.24448361
  PAW double counting   =         4.09787275       -4.11636859
  entropy T*S    EENTRO =        -0.00000000
  eigenvalues    EBANDS =       -27.51354242
  atomic energy  EATOM  =        25.06705842
  Solvation  Ediel_sol  =         0.00000000
  ---------------------------------------------------
  free energy    TOTEN  =        -7.63631335 eV

  energy without entropy =       -7.63631335  energy(sigma->0) =       -7.63631335


--------------------------------------------------------------------------------------------------------




--------------------------------------- Iteration      1(   3)  ---------------------------------------


     EDDAV:  cpu time      0.2314: real time      0.2341
       DOS:  cpu time      0.0005: real time      0.0005
    --------------------------------------------
      LOOP:  cpu time      0.2320: real time      0.2347

 eigenvalue-minimisations  :    96
 total energy-change (2. order) :-0.4438169E-01  (-0.4438169E-01)
 number of electron       2.0000000 magnetization 
 augmentation part        2.0000000 magnetization 

 Free energy of the ion-electron system (eV)
  ---------------------------------------------------
  alpha Z        PSCENC =         0.00121808
  Ewald energy   TEWEN  =        15.18607296
  -Hartree energ DENC   =       -24.60310816
  -exchange      EXHF   =         0.00000000
  -V(xc)+E(xc)   XCENC  =         4.24448361
  PAW double counting   =         4.09787275       -4.11636859
  entropy T*S    EENTRO =        -0.00000000
  eigenvalues    EBANDS =       -27.55792411
  atomic energy  EATOM  =        25.06705842
  Solvation  Ediel_sol  =         0.00000000
  ---------------------------------------------------
  free energy    TOTEN  =        -7.68069504 eV

  energy without entropy =       -7.68069504  energy(sigma->0) =       -7.68069504


--------------------------------------------------------------------------------------------------------




--------------------------------------- Iteration      1(   4)  ---------------------------------------


     EDDAV:  cpu time      0.1622: real time      0.1649
       DOS:  cpu time      0.0006: real time      0.0006
    --------------------------------------------
      LOOP:  cpu time      0.1628: real time      0.1656

 eigenvalue-minimisations  :    64
 total energy-change (2. order) :-0.1791913E-04  (-0.1791913E-04)
 number of electron       2.0000000 magnetization 
 augmentation part        2.0000000 magnetization 

 Free energy of the ion-electron system (eV)
  ---------------------------------------------------
  alpha Z        PSCENC =         0.00121808
  Ewald energy   TEWEN  =        15.18607296
  -Hartree energ DENC   =       -24.60310816
  -exchange      EXHF   =         0.00000000
  -V(xc)+E(xc)   XCENC  =         4.24448361
  PAW double counting   =         4.09787275       -4.11636859
  entropy T*S    EENTRO =        -0.00000000
  eigenvalues    EBANDS =       -27.55794203
  atomic energy  EATOM  =        25.06705842
  Solvation  Ediel_sol  =         0.00000000
  ---------------------------------------------------
  free energy    TOTEN  =        -7.68071296 eV

  energy without entropy =       -7.68071296  energy(sigma->0) =       -7.68071296


--------------------------------------------------------------------------------------------------------




--------------------------------------- Iteration      1(   5)  ---------------------------------------


     EDDAV:  cpu time      0.3066: real time      0.3136
       DOS:  cpu time      0.0006: real time      0.0006
    CHARGE:  cpu time      0.0615: real time      0.0623
    MIXING:  cpu time      0.0035: real time      0.0041
    --------------------------------------------
      LOOP:  cpu time      0.3723: real time      0.3806

 eigenvalue-minimisations  :   128
 total energy-change (2. order) :-0.9483632E-07  (-0.9483453E-07)
 number of electron       2.0000001 magnetization 
 augmentation part        0.0466060 magnetization 

 Broyden mixing:
  rms(total) = 0.45340E+00    rms(broyden)= 0.45323E+00
  rms(prec ) = 0.48859E+00
  weight for this iteration     100.00

 Free energy of the ion-electron system (eV)
  ---------------------------------------------------
  alpha Z        PSCENC =         0.00121808
  Ewald energy   TEWEN  =        15.18607296
  -Hartree energ DENC   =       -24.60310816
  -exchange      EXHF   =         0.00000000
  -V(xc)+E(xc)   XCENC  =         4.24448361
  PAW double counting   =         4.09787275       -4.11636859
  entropy T*S    EENTRO =        -0.00000000
  eigenvalues    EBANDS =       -27.55794212
  atomic energy  EATOM  =        25.06705842
  Solvation  Ediel_sol  =         0.00000000
  ---------------------------------------------------
  free energy    TOTEN  =        -7.68071306 eV

  energy without entropy =       -7.68071306  energy(sigma->0) =       -7.68071306


--------------------------------------------------------------------------------------------------------




--------------------------------------- Iteration      1(   6)  ---------------------------------------


    POTLOK:  cpu time      0.0693: real time      0.0699
    SETDIJ:  cpu time      0.0880: real time      0.0887
     EDDAV:  cpu time      0.1664: real time      0.1689
       DOS:  cpu time      0.0007: real time      0.0007
    CHARGE:  cpu time      0.0549: real time      0.0555
    MIXING:  cpu time      0.0052: real time      0.0057
    --------------------------------------------
      LOOP:  cpu time      0.3845: real time      0.3894

 eigenvalue-minimisations  :    64
 total energy-change (2. order) : 0.4494408E+00  (-0.2111209E-01)
 number of electron       2.0000001 magnetization 
 augmentation part        0.0448742 magnetization 

 Broyden mixing:
  rms(total) = 0.25014E+00    rms(broyden)= 0.25014E+00
  rms(prec ) = 0.27134E+00
  weight for this iteration     100.00

 eigenvalues of (default mixing * dielectric matrix)
  average eigenvalue GAMMA=   2.2081
  2.2081

 Free energy of the ion-electron system (eV)
  ---------------------------------------------------
  alpha Z        PSCENC =         0.00121808
  Ewald energy   TEWEN  =        15.18607296
  -Hartree energ DENC   =       -27.13787783
  -exchange      EXHF   =         0.00000000
  -V(xc)+E(xc)   XCENC  =         4.59452124
  PAW double counting   =        10.81202678      -10.84529664
  entropy T*S    EENTRO =        -0.00000000
  eigenvalues    EBANDS =       -24.90899527
  atomic energy  EATOM  =        25.06705842
  Solvation  Ediel_sol  =         0.00000000
  ---------------------------------------------------
  free energy    TOTEN  =        -7.23127225 eV

  energy without entropy =       -7.23127225  energy(sigma->0) =       -7.23127225


--------------------------------------------------------------------------------------------------------




--------------------------------------- Iteration      1(   7)  ---------------------------------------


    POTLOK:  cpu time      0.0660: real time      0.0673
    SETDIJ:  cpu time      0.0883: real time      0.0889
     EDDAV:  cpu time      0.1625: real time      0.1643
       DOS:  cpu time      0.0003: real time      0.0003
    CHARGE:  cpu time      0.0547: real time      0.0553
    MIXING:  cpu time      0.0019: real time      0.0019
    --------------------------------------------
      LOOP:  cpu time      0.3737: real time      0.3780

 eigenvalue-minimisations  :    64
 total energy-change (2. order) : 0.2596979E+00  (-0.5994124E-01)
 number of electron       2.0000001 magnetization 
 augmentation part        0.0418843 magnetization 

 Broyden mixing:
  rms(total) = 0.30427E-01    rms(broyden)= 0.30330E-01
  rms(prec ) = 0.33399E-01
  weight for this iteration     100.00

 eigenvalues of (default mixing * dielectric matrix)
  average eigenvalue GAMMA=   2.4325
  2.4325  2.4325

 Free energy of the ion-electron system (eV)
  ---------------------------------------------------
  alpha Z        PSCENC =         0.00121808
  Ewald energy   TEWEN  =        15.18607296
  -Hartree energ DENC   =       -31.08011556
  -exchange      EXHF   =         0.00000000
  -V(xc)+E(xc)   XCENC  =         5.16331793
  PAW double counting   =        24.56497224      -24.62278479
  entropy T*S    EENTRO =        -0.00000000
  eigenvalues    EBANDS =       -21.25131363
  atomic energy  EATOM  =        25.06705842
  Solvation  Ediel_sol  =         0.00000000
  ---------------------------------------------------
  free energy    TOTEN  =        -6.97157434 eV

  energy without entropy =       -6.97157434  energy(sigma->0) =       -6.97157434


--------------------------------------------------------------------------------------------------------




--------------------------------------- Iteration      1(   8)  ---------------------------------------


    POTLOK:  cpu time      0.0668: real time      0.0674
    SETDIJ:  cpu time      0.0888: real time      0.0895
     EDDAV:  cpu time      0.2615: real time      0.2641
       DOS:  cpu time      0.0006: real time      0.0006
    CHARGE:  cpu time      0.0542: real time      0.0550
    MIXING:  cpu time      0.0028: real time      0.0028
    --------------------------------------------
      LOOP:  cpu time      0.4747: real time      0.4795

 eigenvalue-minimisations  :    96
 total energy-change (2. order) :-0.7264882E-02  (-0.1244300E-02)
 number of electron       2.0000001 magnetization 
 augmentation part        0.0421611 magnetization 

 Broyden mixing:
  rms(total) = 0.27445E-01    rms(broyden)= 0.27444E-01
  rms(prec ) = 0.30617E-01
  weight for this iteration     100.00

 eigenvalues of (default mixing * dielectric matrix)
  average eigenvalue GAMMA=   2.0009
  0.8891  2.7725  2.3411

 Free energy of the ion-electron system (eV)
  ---------------------------------------------------
  alpha Z        PSCENC =         0.00121808
  Ewald energy   TEWEN  =        15.18607296
  -Hartree energ DENC   =       -30.85087268
  -exchange      EXHF   =         0.00000000
  -V(xc)+E(xc)   XCENC  =         5.11305880
  PAW double counting   =        22.83793295      -22.88884197
  entropy T*S    EENTRO =        -0.00000000
  eigenvalues    EBANDS =       -21.44446578
  atomic energy  EATOM  =        25.06705842
  Solvation  Ediel_sol  =         0.00000000
  ---------------------------------------------------
  free energy    TOTEN  =        -6.97883923 eV

  energy without entropy =       -6.97883923  energy(sigma->0) =       -6.97883923


--------------------------------------------------------------------------------------------------------




--------------------------------------- Iteration      1(   9)  ---------------------------------------


    POTLOK:  cpu time      0.0713: real time      0.0719
    SETDIJ:  cpu time      0.0876: real time      0.0882
     EDDAV:  cpu time      0.2272: real time      0.2297
       DOS:  cpu time      0.0005: real time      0.0005
    CHARGE:  cpu time      0.0545: real time      0.0551
    MIXING:  cpu time      0.0022: real time      0.0022
    --------------------------------------------
      LOOP:  cpu time      0.4434: real time      0.4476

 eigenvalue-minimisations  :    96
 total energy-change (2. order) : 0.5128586E-02  (-0.6945603E-03)
 number of electron       2.0000001 magnetization 
 augmentation part        0.0418430 magnetization 

 Broyden mixing:
  rms(total) = 0.44036E-02    rms(broyden)= 0.43921E-02
  rms(prec ) = 0.62960E-02
  weight for this iteration     100.00

 eigenvalues of (default mixing * dielectric matrix)
  average eigenvalue GAMMA=   2.5497
  4.1198  0.9680  2.8392  2.2719

 Free energy of the ion-electron system (eV)
  ---------------------------------------------------
  alpha Z        PSCENC =         0.00121808
  Ewald energy   TEWEN  =        15.18607296
  -Hartree energ DENC   =       -31.35680246
  -exchange      EXHF   =         0.00000000
  -V(xc)+E(xc)   XCENC  =         5.18029649
  PAW double counting   =        24.43551464      -24.48848184
  entropy T*S    EENTRO =        -0.00000000
  eigenvalues    EBANDS =       -20.99858692
  atomic energy  EATOM  =        25.06705842
  Solvation  Ediel_sol  =         0.00000000
  ---------------------------------------------------
  free energy    TOTEN  =        -6.97371064 eV

  energy without entropy =       -6.97371064  energy(sigma->0) =       -6.97371064


--------------------------------------------------------------------------------------------------------




--------------------------------------- Iteration      1(  10)  ---------------------------------------


    POTLOK:  cpu time      0.0660: real time      0.0666
    SETDIJ:  cpu time      0.0875: real time      0.0881
     EDDAV:  cpu time      0.1622: real time      0.1640
       DOS:  cpu time      0.0004: real time      0.0004
    CHARGE:  cpu time      0.0547: real time      0.0552
    MIXING:  cpu time      0.0021: real time      0.0021
    --------------------------------------------
      LOOP:  cpu time      0.3728: real time      0.3764

 eigenvalue-minimisations  :    64
 total energy-change (2. order) :-0.1682400E-02  (-0.1148220E-03)
 number of electron       2.0000001 magnetization 
 augmentation part        0.0417576 magnetization 

 Broyden mixing:
  rms(total) = 0.16407E-02    rms(broyden)= 0.16356E-02
  rms(prec ) = 0.24128E-02
  weight for this iteration     100.00

 eigenvalues of (default mixing * dielectric matrix)
  average eigenvalue GAMMA=   2.2449
  4.3722  2.6456  2.2842  0.9611  0.9611

 Free energy of the ion-electron system (eV)
  ---------------------------------------------------
  alpha Z        PSCENC =         0.00121808
  Ewald energy   TEWEN  =        15.18607296
  -Hartree energ DENC   =       -31.56567701
  -exchange      EXHF   =         0.00000000
  -V(xc)+E(xc)   XCENC  =         5.19901796
  PAW double counting   =        24.50970119      -24.56335191
  entropy T*S    EENTRO =        -0.00000000
  eigenvalues    EBANDS =       -20.80943273
  atomic energy  EATOM  =        25.06705842
  Solvation  Ediel_sol  =         0.00000000
  ---------------------------------------------------
  free energy    TOTEN  =        -6.97539304 eV

  energy without entropy =       -6.97539304  energy(sigma->0) =       -6.97539304


--------------------------------------------------------------------------------------------------------




--------------------------------------- Iteration      1(  11)  ---------------------------------------


    POTLOK:  cpu time      0.0663: real time      0.0669
    SETDIJ:  cpu time      0.0870: real time      0.0878
     EDDAV:  cpu time      0.3098: real time      0.3134
       DOS:  cpu time      0.0004: real time      0.0004
    CHARGE:  cpu time      0.0558: real time      0.0564
    MIXING:  cpu time      0.0022: real time      0.0022
    --------------------------------------------
      LOOP:  cpu time      0.5214: real time      0.5271

 eigenvalue-minimisations  :   128
 total energy-change (2. order) :-0.6505321E-03  (-0.6232660E-05)
 number of electron       2.0000001 magnetization 
 augmentation part        0.0417340 magnetization 

 Broyden mixing:
  rms(total) = 0.19135E-02    rms(broyden)= 0.19129E-02
  rms(prec ) = 0.24241E-02
  weight for this iteration     100.00

 eigenvalues of (default mixing * dielectric matrix)
  average eigenvalue GAMMA=   2.6749
  5.3074  3.9156  2.6092  2.1935  1.0118  1.0118

 Free energy of the ion-electron system (eV)
  ---------------------------------------------------
  alpha Z        PSCENC =         0.00121808
  Ewald energy   TEWEN  =        15.18607296
  -Hartree energ DENC   =       -31.60717755
  -exchange      EXHF   =         0.00000000
  -V(xc)+E(xc)   XCENC  =         5.20231285
  PAW double counting   =        24.54690854      -24.60053871
  entropy T*S    EENTRO =        -0.00000000
  eigenvalues    EBANDS =       -20.77189818
  atomic energy  EATOM  =        25.06705842
  Solvation  Ediel_sol  =         0.00000000
  ---------------------------------------------------
  free energy    TOTEN  =        -6.97604357 eV

  energy without entropy =       -6.97604357  energy(sigma->0) =       -6.97604357


--------------------------------------------------------------------------------------------------------




--------------------------------------- Iteration      1(  12)  ---------------------------------------


    POTLOK:  cpu time      0.0664: real time      0.0670
    SETDIJ:  cpu time      0.0881: real time      0.0887
     EDDAV:  cpu time      0.2268: real time      0.2292
       DOS:  cpu time      0.0004: real time      0.0004
    CHARGE:  cpu time      0.0543: real time      0.0549
    MIXING:  cpu time      0.0026: real time      0.0027
    --------------------------------------------
      LOOP:  cpu time      0.4386: real time      0.4429

 eigenvalue-minimisations  :    96
 total energy-change (2. order) :-0.1932103E-02  (-0.5701760E-04)
 number of electron       2.0000001 magnetization 
 augmentation part        0.0417604 magnetization 

 Broyden mixing:
  rms(total) = 0.10648E-02    rms(broyden)= 0.10647E-02
  rms(prec ) = 0.12145E-02
  weight for this iteration     100.00

 eigenvalues of (default mixing * dielectric matrix)
  average eigenvalue GAMMA=   2.5587
  5.5254  3.8848  1.0252  0.9892  2.1039  2.1039  2.2782

 Free energy of the ion-electron system (eV)
  ---------------------------------------------------
  alpha Z        PSCENC =         0.00121808
  Ewald energy   TEWEN  =        15.18607296
  -Hartree energ DENC   =       -31.56548430
  -exchange      EXHF   =         0.00000000
  -V(xc)+E(xc)   XCENC  =         5.19340838
  PAW double counting   =        24.42465619      -24.47788823
  entropy T*S    EENTRO =        -0.00000000
  eigenvalues    EBANDS =       -20.80701718
  atomic energy  EATOM  =        25.06705842
  Solvation  Ediel_sol  =         0.00000000
  ---------------------------------------------------
  free energy    TOTEN  =        -6.97797567 eV

  energy without entropy =       -6.97797567  energy(sigma->0) =       -6.97797567


--------------------------------------------------------------------------------------------------------




--------------------------------------- Iteration      1(  13)  ---------------------------------------


    POTLOK:  cpu time      0.0657: real time      0.0663
    SETDIJ:  cpu time      0.0878: real time      0.0885
     EDDAV:  cpu time      0.3001: real time      0.3039
       DOS:  cpu time      0.0003: real time      0.0003
    CHARGE:  cpu time      0.0548: real time      0.0559
    MIXING:  cpu time      0.0027: real time      0.0027
    --------------------------------------------
      LOOP:  cpu time      0.5113: real time      0.5176

 eigenvalue-minimisations  :   128
 total energy-change (2. order) :-0.1761425E-03  (-0.1784563E-05)
 number of electron       2.0000001 magnetization 
 augmentation part        0.0417446 magnetization 

 Broyden mixing:
  rms(total) = 0.59544E-03    rms(broyden)= 0.59534E-03
  rms(prec ) = 0.67855E-03
  weight for this iteration     100.00

 eigenvalues of (default mixing * dielectric matrix)
  average eigenvalue GAMMA=   2.7830
  6.9383  4.4374  3.2432  2.5200  2.1579  1.0382  0.9960  0.9331

 Free energy of the ion-electron system (eV)
  ---------------------------------------------------
  alpha Z        PSCENC =         0.00121808
  Ewald energy   TEWEN  =        15.18607296
  -Hartree energ DENC   =       -31.58980681
  -exchange      EXHF   =         0.00000000
  -V(xc)+E(xc)   XCENC  =         5.19609519
  PAW double counting   =        24.46653929      -24.52000558
  entropy T*S    EENTRO =        -0.00000000
  eigenvalues    EBANDS =       -20.78532338
  atomic energy  EATOM  =        25.06705842
  Solvation  Ediel_sol  =         0.00000000
  ---------------------------------------------------
  free energy    TOTEN  =        -6.97815182 eV

  energy without entropy =       -6.97815182  energy(sigma->0) =       -6.97815182


--------------------------------------------------------------------------------------------------------




--------------------------------------- Iteration      1(  14)  ---------------------------------------


    POTLOK:  cpu time      0.0657: real time      0.0669
    SETDIJ:  cpu time      0.0883: real time      0.0889
     EDDAV:  cpu time      0.1623: real time      0.1644
       DOS:  cpu time      0.0004: real time      0.0004
    CHARGE:  cpu time      0.0548: real time      0.0559
    MIXING:  cpu time      0.0024: real time      0.0024
    --------------------------------------------
      LOOP:  cpu time      0.3737: real time      0.3788

 eigenvalue-minimisations  :    64
 total energy-change (2. order) :-0.2070934E-03  (-0.2002115E-05)
 number of electron       2.0000001 magnetization 
 augmentation part        0.0417457 magnetization 

 Broyden mixing:
  rms(total) = 0.12001E-03    rms(broyden)= 0.12001E-03
  rms(prec ) = 0.17879E-03
  weight for this iteration     100.00

 eigenvalues of (default mixing * dielectric matrix)
  average eigenvalue GAMMA=   3.0544
  7.9803  4.9342  3.9695  2.9224  2.5492  2.1534  1.0205  0.9799  0.9799

 Free energy of the ion-electron system (eV)
  ---------------------------------------------------
  alpha Z        PSCENC =         0.00121808
  Ewald energy   TEWEN  =        15.18607296
  -Hartree energ DENC   =       -31.58947591
  -exchange      EXHF   =         0.00000000
  -V(xc)+E(xc)   XCENC  =         5.19556711
  PAW double counting   =        24.46425558      -24.51765171
  entropy T*S    EENTRO =        -0.00000000
  eigenvalues    EBANDS =       -20.78540345
  atomic energy  EATOM  =        25.06705842
  Solvation  Ediel_sol  =         0.00000000
  ---------------------------------------------------
  free energy    TOTEN  =        -6.97835891 eV

  energy without entropy =       -6.97835891  energy(sigma->0) =       -6.97835891


--------------------------------------------------------------------------------------------------------




--------------------------------------- Iteration      1(  15)  ---------------------------------------


    POTLOK:  cpu time      0.0655: real time      0.0667
    SETDIJ:  cpu time      0.0893: real time      0.0899
     EDDAV:  cpu time      0.1613: real time      0.1636
       DOS:  cpu time      0.0051: real time      0.0052
    CHARGE:  cpu time      0.0542: real time      0.0554
    MIXING:  cpu time      0.0024: real time      0.0025
    --------------------------------------------
      LOOP:  cpu time      0.3778: real time      0.3832

 eigenvalue-minimisations  :    64
 total energy-change (2. order) :-0.6018297E-04  (-0.7800241E-07)
 number of electron       2.0000001 magnetization 
 augmentation part        0.0417459 magnetization 

 Broyden mixing:
  rms(total) = 0.97553E-04    rms(broyden)= 0.97552E-04
  rms(prec ) = 0.11974E-03
  weight for this iteration     100.00

 eigenvalues of (default mixing * dielectric matrix)
  average eigenvalue GAMMA=   2.9294
  8.1767  5.1190  3.9916  3.0556  2.4419  2.1402  1.0080  0.9893  0.9712  1.4002

 Free energy of the ion-electron system (eV)
  ---------------------------------------------------
  alpha Z        PSCENC =         0.00121808
  Ewald energy   TEWEN  =        15.18607296
  -Hartree energ DENC   =       -31.59068244
  -exchange      EXHF   =         0.00000000
  -V(xc)+E(xc)   XCENC  =         5.19548932
  PAW double counting   =        24.46180201      -24.51519521
  entropy T*S    EENTRO =        -0.00000000
  eigenvalues    EBANDS =       -20.78418224
  atomic energy  EATOM  =        25.06705842
  Solvation  Ediel_sol  =         0.00000000
  ---------------------------------------------------
  free energy    TOTEN  =        -6.97841909 eV

  energy without entropy =       -6.97841909  energy(sigma->0) =       -6.97841909


--------------------------------------------------------------------------------------------------------




--------------------------------------- Iteration      1(  16)  ---------------------------------------


    POTLOK:  cpu time      0.0653: real time      0.0666
    SETDIJ:  cpu time      0.0875: real time      0.0881
     EDDAV:  cpu time      0.3000: real time      0.3030
       DOS:  cpu time      0.0010: real time      0.0010
    CHARGE:  cpu time      0.0543: real time      0.0553
    MIXING:  cpu time      0.0040: real time      0.0041
    --------------------------------------------
      LOOP:  cpu time      0.5121: real time      0.5181

 eigenvalue-minimisations  :   128
 total energy-change (2. order) :-0.1628972E-04  (-0.2262403E-07)
 number of electron       2.0000001 magnetization 
 augmentation part        0.0417472 magnetization 

 Broyden mixing:
  rms(total) = 0.26090E-04    rms(broyden)= 0.26042E-04
  rms(prec ) = 0.43286E-04
  weight for this iteration     100.00

 eigenvalues of (default mixing * dielectric matrix)
  average eigenvalue GAMMA=   3.1408
  8.8945  6.0849  4.3779  3.7409  2.8724  2.4562  2.1476  1.0387  0.9942  0.9942
  0.9472

 Free energy of the ion-electron system (eV)
  ---------------------------------------------------
  alpha Z        PSCENC =         0.00121808
  Ewald energy   TEWEN  =        15.18607296
  -Hartree energ DENC   =       -31.58952430
  -exchange      EXHF   =         0.00000000
  -V(xc)+E(xc)   XCENC  =         5.19525826
  PAW double counting   =        24.45803946      -24.51141939
  entropy T*S    EENTRO =        -0.00000000
  eigenvalues    EBANDS =       -20.78513887
  atomic energy  EATOM  =        25.06705842
  Solvation  Ediel_sol  =         0.00000000
  ---------------------------------------------------
  free energy    TOTEN  =        -6.97843538 eV

  energy without entropy =       -6.97843538  energy(sigma->0) =       -6.97843538


--------------------------------------------------------------------------------------------------------




--------------------------------------- Iteration      1(  17)  ---------------------------------------


    POTLOK:  cpu time      0.0685: real time      0.0695
    SETDIJ:  cpu time      0.0897: real time      0.0904
     EDDAV:  cpu time      0.3025: real time      0.3060
       DOS:  cpu time      0.0006: real time      0.0006
    CHARGE:  cpu time      0.0546: real time      0.0557
    MIXING:  cpu time      0.0034: real time      0.0034
    --------------------------------------------
      LOOP:  cpu time      0.5195: real time      0.5258

 eigenvalue-minimisations  :   128
 total energy-change (2. order) :-0.1715280E-04  (-0.2029071E-07)
 number of electron       2.0000001 magnetization 
 augmentation part        0.0417470 magnetization 

 Broyden mixing:
  rms(total) = 0.11015E-04    rms(broyden)= 0.11015E-04
  rms(prec ) = 0.14720E-04
  weight for this iteration     100.00

 eigenvalues of (default mixing * dielectric matrix)
  average eigenvalue GAMMA=   3.0922
  9.0507  6.1757  4.6150  3.3711  3.2068  2.5239  2.1190  2.0920  1.0289  0.9851
  0.9851  0.9533

 Free energy of the ion-electron system (eV)
  ---------------------------------------------------
  alpha Z        PSCENC =         0.00121808
  Ewald energy   TEWEN  =        15.18607296
  -Hartree energ DENC   =       -31.58983760
  -exchange      EXHF   =         0.00000000
  -V(xc)+E(xc)   XCENC  =         5.19526767
  PAW double counting   =        24.45993506      -24.51331572
  entropy T*S    EENTRO =        -0.00000000
  eigenvalues    EBANDS =       -20.78485142
  atomic energy  EATOM  =        25.06705842
  Solvation  Ediel_sol  =         0.00000000
  ---------------------------------------------------
  free energy    TOTEN  =        -6.97845254 eV

  energy without entropy =       -6.97845254  energy(sigma->0) =       -6.97845254


--------------------------------------------------------------------------------------------------------




--------------------------------------- Iteration      1(  18)  ---------------------------------------


    POTLOK:  cpu time      0.0669: real time      0.0682
    SETDIJ:  cpu time      0.0871: real time      0.0877
     EDDAV:  cpu time      0.2239: real time      0.2264
       DOS:  cpu time      0.0004: real time      0.0004
    CHARGE:  cpu time      0.0540: real time      0.0550
    MIXING:  cpu time      0.0150: real time      0.0153
    --------------------------------------------
      LOOP:  cpu time      0.4473: real time      0.4531

 eigenvalue-minimisations  :    96
 total energy-change (2. order) :-0.2402819E-05  (-0.5394512E-09)
 number of electron       2.0000001 magnetization 
 augmentation part        0.0417471 magnetization 

 Broyden mixing:
  rms(total) = 0.10782E-04    rms(broyden)= 0.10782E-04
  rms(prec ) = 0.12697E-04
  weight for this iteration     100.00

 eigenvalues of (default mixing * dielectric matrix)
  average eigenvalue GAMMA=   3.1550
  9.5211  6.8657  4.8544  4.0947  3.3154  2.8130  2.4569  2.1480  1.0492  1.0020
  1.0020  0.9462  0.9462

 Free energy of the ion-electron system (eV)
  ---------------------------------------------------
  alpha Z        PSCENC =         0.00121808
  Ewald energy   TEWEN  =        15.18607296
  -Hartree energ DENC   =       -31.58978344
  -exchange      EXHF   =         0.00000000
  -V(xc)+E(xc)   XCENC  =         5.19525375
  PAW double counting   =        24.45909875      -24.51247897
  entropy T*S    EENTRO =        -0.00000000
  eigenvalues    EBANDS =       -20.78489449
  atomic energy  EATOM  =        25.06705842
  Solvation  Ediel_sol  =         0.00000000
  ---------------------------------------------------
  free energy    TOTEN  =        -6.97845494 eV

  energy without entropy =       -6.97845494  energy(sigma->0) =       -6.97845494


--------------------------------------------------------------------------------------------------------




--------------------------------------- Iteration      1(  19)  ---------------------------------------


    POTLOK:  cpu time      0.0735: real time      0.0746
    SETDIJ:  cpu time      0.0878: real time      0.0885
     EDDAV:  cpu time      0.3036: real time      0.3072
       DOS:  cpu time      0.0006: real time      0.0006
    CHARGE:  cpu time      0.0542: real time      0.0553
    MIXING:  cpu time      0.0034: real time      0.0035
    --------------------------------------------
      LOOP:  cpu time      0.5232: real time      0.5298

 eigenvalue-minimisations  :   128
 total energy-change (2. order) :-0.1797394E-05  (-0.1145285E-08)
 number of electron       2.0000001 magnetization 
 augmentation part        0.0417470 magnetization 

 Broyden mixing:
  rms(total) = 0.35136E-05    rms(broyden)= 0.35134E-05
  rms(prec ) = 0.43062E-05
  weight for this iteration     100.00

 eigenvalues of (default mixing * dielectric matrix)
  average eigenvalue GAMMA=   3.2278
  9.6959  7.1350  5.1944  4.2129  3.7539  2.9358  2.6673  2.1500  2.4451  0.9626
  0.9869  0.9869  1.0313  1.0313

 Free energy of the ion-electron system (eV)
  ---------------------------------------------------
  alpha Z        PSCENC =         0.00121808
  Ewald energy   TEWEN  =        15.18607296
  -Hartree energ DENC   =       -31.58992312
  -exchange      EXHF   =         0.00000000
  -V(xc)+E(xc)   XCENC  =         5.19526791
  PAW double counting   =        24.45914879      -24.51253004
  entropy T*S    EENTRO =        -0.00000000
  eigenvalues    EBANDS =       -20.78476974
  atomic energy  EATOM  =        25.06705842
  Solvation  Ediel_sol  =         0.00000000
  ---------------------------------------------------
  free energy    TOTEN  =        -6.97845674 eV

  energy without entropy =       -6.97845674  energy(sigma->0) =       -6.97845674


--------------------------------------------------------------------------------------------------------




--------------------------------------- Iteration      1(  20)  ---------------------------------------


    POTLOK:  cpu time      0.0729: real time      0.0745
    SETDIJ:  cpu time      0.0878: real time      0.0884
     EDDAV:  cpu time      0.3026: real time      0.3058
       DOS:  cpu time      0.0006: real time      0.0006
    CHARGE:  cpu time      0.0538: real time      0.0549
    MIXING:  cpu time      0.0032: real time      0.0033
    --------------------------------------------
      LOOP:  cpu time      0.5208: real time      0.5275

 eigenvalue-minimisations  :   128
 total energy-change (2. order) :-0.4030448E-06  (-0.1852101E-09)
 number of electron       2.0000001 magnetization 
 augmentation part        0.0417470 magnetization 

 Broyden mixing:
  rms(total) = 0.12567E-05    rms(broyden)= 0.12567E-05
  rms(prec ) = 0.16951E-05
  weight for this iteration     100.00

 eigenvalues of (default mixing * dielectric matrix)
  average eigenvalue GAMMA=   3.1825
  9.7311  7.3051  5.1874  4.6919  3.5550  3.4245  2.7298  2.4668  2.1472  1.4872
  0.9601  0.9915  0.9915  1.0343  1.0343

 Free energy of the ion-electron system (eV)
  ---------------------------------------------------
  alpha Z        PSCENC =         0.00121808
  Ewald energy   TEWEN  =        15.18607296
  -Hartree energ DENC   =       -31.58987358
  -exchange      EXHF   =         0.00000000
  -V(xc)+E(xc)   XCENC  =         5.19525893
  PAW double counting   =        24.45920011      -24.51258099
  entropy T*S    EENTRO =        -0.00000000
  eigenvalues    EBANDS =       -20.78481108
  atomic energy  EATOM  =        25.06705842
  Solvation  Ediel_sol  =         0.00000000
  ---------------------------------------------------
  free energy    TOTEN  =        -6.97845714 eV

  energy without entropy =       -6.97845714  energy(sigma->0) =       -6.97845714


--------------------------------------------------------------------------------------------------------




--------------------------------------- Iteration      1(  21)  ---------------------------------------


    POTLOK:  cpu time      0.0657: real time      0.0667
    SETDIJ:  cpu time      0.0877: real time      0.0883
     EDDAV:  cpu time      0.1604: real time      0.1627
       DOS:  cpu time      0.0008: real time      0.0008
    --------------------------------------------
      LOOP:  cpu time      0.3146: real time      0.3185

 eigenvalue-minimisations  :    64
 total energy-change (2. order) :-0.8269932E-07  (-0.1447376E-10)
 number of electron       2.0000001 magnetization 
 augmentation part        0.0417470 magnetization 

 Free energy of the ion-electron system (eV)
  ---------------------------------------------------
  alpha Z        PSCENC =         0.00121808
  Ewald energy   TEWEN  =        15.18607296
  -Hartree energ DENC   =       -31.58989507
  -exchange      EXHF   =         0.00000000
  -V(xc)+E(xc)   XCENC  =         5.19526128
  PAW double counting   =        24.45923096      -24.51261202
  entropy T*S    EENTRO =        -0.00000000
  eigenvalues    EBANDS =       -20.78479184
  atomic energy  EATOM  =        25.06705842
  Solvation  Ediel_sol  =         0.00000000
  ---------------------------------------------------
  free energy    TOTEN  =        -6.97845722 eV

  energy without entropy =       -6.97845722  energy(sigma->0) =       -6.97845722


--------------------------------------------------------------------------------------------------------




 average (electrostatic) potential at core
  the test charge radii are     0.5201
  (the norm of the test charge is              1.0000)
       1 -41.8004       2 -41.8004



 E-fermi : -10.3223     XC(G=0):  -0.0653     alpha+bet : -0.0069

 val. band max:      -10.3923959193   @ k =   0.0000   0.0000   0.0000
 cond. band min:      -0.0580178528   @ k =   0.0000   0.0000   0.0000
 fundamental gap:     10.3343780665
 Fermi energy:       -10.3222567181

 k-point     1 :       0.0000    0.0000    0.0000
  band No.  band energies     occupation 
      1     -10.3924      2.00000
      2      -0.0580      0.00000
      3       0.1136      0.00000
      4       0.2331      0.00000
      5       0.3146      0.00000
      6       0.3146      0.00000
      7       0.3518      0.00000
      8       0.3543      0.00000
      9       0.4450      0.00000
     10       0.5992      0.00000
     11       0.5992      0.00000
     12       0.6288      0.00000
     13       0.7182      0.00000
     14       0.7186      0.00000
     15       0.7377      0.00000
     16       0.7380      0.00000
     17       0.7380      0.00000
     18       0.7391      0.00000
     19       0.7391      0.00000
     20       0.7431      0.00000
     21       0.8709      0.00000
     22       1.0014      0.00000
     23       1.0014      0.00000
     24       1.0598      0.00000
     25       1.1056      0.00000
     26       1.1065      0.00000
     27       1.1065      0.00000
     28       1.1223      0.00000
     29       1.2024      0.00000
     30       1.3404      0.00000
     31       1.3404      0.00000
     32       1.4621      0.00000


--------------------------------------------------------------------------------------------------------


 soft charge-density along one line, spin component           1
         0         1         2         3         4         5         6         7         8         9
 total charge-density along one line

 pseudopotential strength for first ion, spin component:           1
 -2.344  -4.040  -0.000   0.000  -0.009
 -4.040  -6.877  -0.000   0.000  -0.019
 -0.000  -0.000  -0.343  -0.000  -0.000
  0.000   0.000  -0.000  -0.343  -0.000
 -0.009  -0.019  -0.000  -0.000  -0.321
 total augmentation occupancy for first ion, spin component:           1
  3.114  -0.484   0.000   0.000   0.380
 -0.484   0.075  -0.000  -0.000  -0.059
  0.000  -0.000   0.000   0.000   0.000
  0.000  -0.000   0.000   0.000   0.000
  0.380  -0.059   0.000   0.000   0.046


------------------------ aborting loop because EDIFF is reached ----------------------------------------


    CHARGE:  cpu time      0.0537: real time      0.0546
    FORLOC:  cpu time      0.0013: real time      0.0014
    FORNL :  cpu time      0.2532: real time      0.2592
    STRESS:  cpu time      0.8472: real time      0.8591
    FORHAR:  cpu time      0.0167: real time      0.0176
    MIXING:  cpu time      0.0032: real time      0.0032
    OFIELD:  cpu time      0.0003: real time      0.0003

 ---------------------------------------------------------------------------------------------

         DFTD3 V3.0 Rev 1        
 DF rpbe      
 parameters
 rs18     =    1.0000
 alpha6   =   14.0000
 alpha8   =   16.0000
 k1-k3    =   16.0000    1.3333   -4.0000
 Edisp (eV)   -0.00000

 E6    (eV) :    -0.0000
 E8    (eV) :    -0.0000
 % E8        :  4.58
    FORVDW:  cpu time      0.0163: real time      0.0187

  FORCE on cell =-STRESS in cart. coord.  units (eV):
  Direction    XX          YY          ZZ          XY          YZ          ZX
  --------------------------------------------------------------------------------------
  Alpha Z     0.00122     0.00122     0.00122
  Ewald      17.91201    -1.36296    -1.36296     0.00000     0.00000     0.00000
  Hartree    12.03189     9.77901     9.77901     0.00000     0.00000     0.00000
  E(xc)      -5.83972    -6.13729    -6.13729     0.00000     0.00000     0.00000
  Local     -31.91765   -18.29033   -18.29033    -0.00000    -0.00000    -0.00000
  n-local    -6.41799    -5.44904    -5.44904    -0.00000    -0.00000    -0.00000
  augment     0.20193     0.27244     0.27245    -0.00000     0.00000     0.00000
  Kinetic    13.87158    21.06702    21.06702    -0.00000    -0.00000    -0.00000
  Fock        0.00000     0.00000     0.00000     0.00000     0.00000     0.00000
  vdW         0.00003    -0.00000    -0.00000     0.00000     0.00000     0.00000
  -------------------------------------------------------------------------------------
  Total      -0.15669    -0.11993    -0.11992    -0.00000     0.00000     0.00000
  in kB      -0.03138    -0.02402    -0.02402    -0.00000     0.00000     0.00000
  external pressure =       -0.03 kB  Pullay stress =        0.00 kB


 VOLUME and BASIS-vectors are now :
 -----------------------------------------------------------------------------
  energy-cutoff  :      400.00
  volume of cell :     8000.00
      direct lattice vectors                 reciprocal lattice vectors
    20.000000000  0.000000000  0.000000000     0.050000000  0.000000000  0.000000000
     0.000000000 20.000000000  0.000000000     0.000000000  0.050000000  0.000000000
     0.000000000  0.000000000 20.000000000     0.000000000  0.000000000  0.050000000

  length of vectors
    20.000000000 20.000000000 20.000000000     0.050000000  0.050000000  0.050000000


 FORCES acting on ions
    electron-ion (+dipol)            ewald-force                    non-local-force                 convergence-correction
 -----------------------------------------------------------------------------------------------
   0.207E+02 0.132E-08 0.482E-07   -.258E+02 -.510E-08 -.100E-06   0.510E+01 0.187E-07 0.527E-06   -.746E-06 0.432E-08 0.787E-09
   -.207E+02 -.701E-08 -.489E-07   0.258E+02 0.510E-08 0.100E-06   -.510E+01 -.210E-07 -.527E-06   0.126E-05 0.429E-08 0.775E-09
 -----------------------------------------------------------------------------------------------
   -.680E-06 -.569E-08 -.785E-09   0.000E+00 -.168E-18 0.315E-18   -.749E-07 -.234E-08 -.384E-09   0.518E-06 0.861E-08 0.156E-08


 POSITION                                       TOTAL-FORCE (eV/Angst)
 -----------------------------------------------------------------------------------
      9.62636     10.00000     10.00000         0.001494      0.000000      0.000000
     10.37364     10.00000     10.00000        -0.001494     -0.000000     -0.000000
 -----------------------------------------------------------------------------------
    total drift:                               -0.000000      0.000000      0.000000


--------------------------------------------------------------------------------------------------------



  FREE ENERGIE OF THE ION-ELECTRON SYSTEM (eV)
  ---------------------------------------------------
  free  energy   TOTEN  =        -6.97846165 eV

  energy  without entropy=       -6.97846165  energy(sigma->0) =       -6.97846165



--------------------------------------------------------------------------------------------------------


    POTLOK:  cpu time      0.1539: real time      0.1551


--------------------------------------------------------------------------------------------------------


 Finite differences:
   Step               POTIM =    2.0000000000000000E-002
   Degrees of freedom DOF   =            6
    WAVPRE:  cpu time      0.0058: real time      0.0062
    FEWALD:  cpu time      0.0003: real time      0.0007
    ORTHCH:  cpu time      0.0127: real time      0.0130
     LOOP+:  cpu time      9.8959: real time     10.0300


--------------------------------------- Ionic step        2  -------------------------------------------




--------------------------------------- Iteration      2(   1)  ---------------------------------------


    POTLOK:  cpu time      0.0632: real time      0.0644
    SETDIJ:  cpu time      0.0883: real time      0.0890
     EDDAV:  cpu time      0.1610: real time      0.1629
       DOS:  cpu time      0.0008: real time      0.0008
    CHARGE:  cpu time      0.0566: real time      0.0577
    MIXING:  cpu time      0.0059: real time      0.0059
    --------------------------------------------
      LOOP:  cpu time      0.3758: real time      0.3808

 eigenvalue-minimisations  :    64
 total energy-change (2. order) : 0.6430456E-02  (-0.1752560E-01)
 number of electron       2.0000001 magnetization 
 augmentation part        0.0429943 magnetization 

 Broyden mixing:
  rms(total) = 0.19824E-01    rms(broyden)= 0.19797E-01
  rms(prec ) = 0.20920E-01
  weight for this iteration     100.00

 Free energy of the ion-electron system (eV)
  ---------------------------------------------------
  alpha Z        PSCENC =         0.00121808
  Ewald energy   TEWEN  =        15.71587062
  -Hartree energ DENC   =       -31.75848945
  -exchange      EXHF   =         0.00000000
  -V(xc)+E(xc)   XCENC  =         5.21608536
  PAW double counting   =        24.45923171      -24.51261272
  entropy T*S    EENTRO =        -0.00000000
  eigenvalues    EBANDS =       -21.16038871
  atomic energy  EATOM  =        25.06705842
  Solvation  Ediel_sol  =         0.00000000
  ---------------------------------------------------
  free energy    TOTEN  =        -6.97202668 eV

  energy without entropy =       -6.97202668  energy(sigma->0) =       -6.97202668


--------------------------------------------------------------------------------------------------------




--------------------------------------- Iteration      2(   2)  ---------------------------------------


    POTLOK:  cpu time      0.1737: real time      0.1752
    SETDIJ:  cpu time      0.1135: real time      0.1144
     EDDAV:  cpu time      0.3088: real time      0.3113
       DOS:  cpu time      0.0161: real time      0.0162
    CHARGE:  cpu time      0.0891: real time      0.0904
    MIXING:  cpu time      0.0099: real time      0.0100
    --------------------------------------------
      LOOP:  cpu time      0.7112: real time      0.7175

 eigenvalue-minimisations  :    64
 total energy-change (2. order) : 0.5709186E-03  (-0.1096018E-03)
 number of electron       2.0000001 magnetization 
 augmentation part        0.0429644 magnetization 

 Broyden mixing:
  rms(total) = 0.11502E-01    rms(broyden)= 0.11500E-01
  rms(prec ) = 0.12121E-01
  weight for this iteration     100.00

 eigenvalues of (default mixing * dielectric matrix)
  average eigenvalue GAMMA=   2.3223
  2.3223

 Free energy of the ion-electron system (eV)
  ---------------------------------------------------
  alpha Z        PSCENC =         0.00121808
  Ewald energy   TEWEN  =        15.71587062
  -Hartree energ DENC   =       -31.84851966
  -exchange      EXHF   =         0.00000000
  -V(xc)+E(xc)   XCENC  =         5.22828197
  PAW double counting   =        25.08957368      -25.14436205
  entropy T*S    EENTRO =        -0.00000000
  eigenvalues    EBANDS =       -21.08057682
  atomic energy  EATOM  =        25.06705842
  Solvation  Ediel_sol  =         0.00000000
  ---------------------------------------------------
  free energy    TOTEN  =        -6.97145576 eV

  energy without entropy =       -6.97145576  energy(sigma->0) =       -6.97145576


--------------------------------------------------------------------------------------------------------




--------------------------------------- Iteration      2(   3)  ---------------------------------------


    POTLOK:  cpu time      0.1767: real time      0.1785
    SETDIJ:  cpu time      0.1191: real time      0.1200
     EDDAV:  cpu time      0.5576: real time      0.5620
       DOS:  cpu time      0.0006: real time      0.0006
    CHARGE:  cpu time      0.0536: real time      0.0562
    MIXING:  cpu time      0.0020: real time      0.0025
    --------------------------------------------
      LOOP:  cpu time      0.9097: real time      0.9198

 eigenvalue-minimisations  :   128
 total energy-change (2. order) : 0.1904002E-03  (-0.1077661E-03)
 number of electron       2.0000001 magnetization 
 augmentation part        0.0428645 magnetization 

 Broyden mixing:
  rms(total) = 0.16469E-02    rms(broyden)= 0.16452E-02
  rms(prec ) = 0.17710E-02
  weight for this iteration     100.00

 eigenvalues of (default mixing * dielectric matrix)
  average eigenvalue GAMMA=   1.4912
  0.8271  2.1553

 Free energy of the ion-electron system (eV)
  ---------------------------------------------------
  alpha Z        PSCENC =         0.00121808
  Ewald energy   TEWEN  =        15.71587062
  -Hartree energ DENC   =       -31.96693691
  -exchange      EXHF   =         0.00000000
  -V(xc)+E(xc)   XCENC  =         5.24428158
  PAW double counting   =        25.92455962      -25.98125117
  entropy T*S    EENTRO =        -0.00000000
  eigenvalues    EBANDS =       -20.97606561
  atomic energy  EATOM  =        25.06705842
  Solvation  Ediel_sol  =         0.00000000
  ---------------------------------------------------
  free energy    TOTEN  =        -6.97126536 eV

  energy without entropy =       -6.97126536  energy(sigma->0) =       -6.97126536


--------------------------------------------------------------------------------------------------------




--------------------------------------- Iteration      2(   4)  ---------------------------------------


    POTLOK:  cpu time      0.0644: real time      0.0660
    SETDIJ:  cpu time      0.0888: real time      0.0894
     EDDAV:  cpu time      0.1614: real time      0.1632
       DOS:  cpu time      0.0006: real time      0.0006
    CHARGE:  cpu time      0.0538: real time      0.0548
    MIXING:  cpu time      0.0021: real time      0.0021
    --------------------------------------------
      LOOP:  cpu time      0.3710: real time      0.3762

 eigenvalue-minimisations  :    64
 total energy-change (2. order) : 0.1175266E-06  (-0.1207602E-05)
 number of electron       2.0000001 magnetization 
 augmentation part        0.0428723 magnetization 

 Broyden mixing:
  rms(total) = 0.64537E-03    rms(broyden)= 0.64534E-03
  rms(prec ) = 0.70150E-03
  weight for this iteration     100.00

 eigenvalues of (default mixing * dielectric matrix)
  average eigenvalue GAMMA=   1.8367
  0.9838  2.4887  2.0376

 Free energy of the ion-electron system (eV)
  ---------------------------------------------------
  alpha Z        PSCENC =         0.00121808
  Ewald energy   TEWEN  =        15.71587062
  -Hartree energ DENC   =       -31.95802628
  -exchange      EXHF   =         0.00000000
  -V(xc)+E(xc)   XCENC  =         5.24295883
  PAW double counting   =        25.88326688      -25.93983949
  entropy T*S    EENTRO =        -0.00000000
  eigenvalues    EBANDS =       -20.98377231
  atomic energy  EATOM  =        25.06705842
  Solvation  Ediel_sol  =         0.00000000
  ---------------------------------------------------
  free energy    TOTEN  =        -6.97126525 eV

  energy without entropy =       -6.97126525  energy(sigma->0) =       -6.97126525


--------------------------------------------------------------------------------------------------------




--------------------------------------- Iteration      2(   5)  ---------------------------------------


    POTLOK:  cpu time      0.0672: real time      0.0685
    SETDIJ:  cpu time      0.0884: real time      0.0891
     EDDAV:  cpu time      0.3030: real time      0.3065
       DOS:  cpu time      0.0006: real time      0.0007
    CHARGE:  cpu time      0.0536: real time      0.0547
    MIXING:  cpu time      0.0020: real time      0.0020
    --------------------------------------------
      LOOP:  cpu time      0.5148: real time      0.5215

 eigenvalue-minimisations  :   128
 total energy-change (2. order) :-0.7120356E-05  (-0.5816744E-06)
 number of electron       2.0000001 magnetization 
 augmentation part        0.0428728 magnetization 

 Broyden mixing:
  rms(total) = 0.15203E-03    rms(broyden)= 0.15180E-03
  rms(prec ) = 0.17764E-03
  weight for this iteration     100.00

 eigenvalues of (default mixing * dielectric matrix)
  average eigenvalue GAMMA=   1.9037
  1.0280  2.4126  2.4126  1.7616

 Free energy of the ion-electron system (eV)
  ---------------------------------------------------
  alpha Z        PSCENC =         0.00121808
  Ewald energy   TEWEN  =        15.71587062
  -Hartree energ DENC   =       -31.95920750
  -exchange      EXHF   =         0.00000000
  -V(xc)+E(xc)   XCENC  =         5.24285740
  PAW double counting   =        25.92868632      -25.98531414
  entropy T*S    EENTRO =        -0.00000000
  eigenvalues    EBANDS =       -20.98244158
  atomic energy  EATOM  =        25.06705842
  Solvation  Ediel_sol  =         0.00000000
  ---------------------------------------------------
  free energy    TOTEN  =        -6.97127237 eV

  energy without entropy =       -6.97127237  energy(sigma->0) =       -6.97127237


--------------------------------------------------------------------------------------------------------




--------------------------------------- Iteration      2(   6)  ---------------------------------------


    POTLOK:  cpu time      0.0665: real time      0.0675
    SETDIJ:  cpu time      0.0879: real time      0.0886
     EDDAV:  cpu time      0.1606: real time      0.1625
       DOS:  cpu time      0.0006: real time      0.0006
    CHARGE:  cpu time      0.0909: real time      0.0922
    MIXING:  cpu time      0.0284: real time      0.0286
    --------------------------------------------
      LOOP:  cpu time      0.4349: real time      0.4400

 eigenvalue-minimisations  :    64
 total energy-change (2. order) :-0.4365161E-05  (-0.2420631E-07)
 number of electron       2.0000001 magnetization 
 augmentation part        0.0428730 magnetization 

 Broyden mixing:
  rms(total) = 0.51243E-04    rms(broyden)= 0.51228E-04
  rms(prec ) = 0.75119E-04
  weight for this iteration     100.00

 eigenvalues of (default mixing * dielectric matrix)
  average eigenvalue GAMMA=   1.7941
  0.9875  1.0448  2.8592  1.8521  2.2272

 Free energy of the ion-electron system (eV)
  ---------------------------------------------------
  alpha Z        PSCENC =         0.00121808
  Ewald energy   TEWEN  =        15.71587062
  -Hartree energ DENC   =       -31.95981820
  -exchange      EXHF   =         0.00000000
  -V(xc)+E(xc)   XCENC  =         5.24286078
  PAW double counting   =        25.92649662      -25.98311682
  entropy T*S    EENTRO =        -0.00000000
  eigenvalues    EBANDS =       -20.98184623
  atomic energy  EATOM  =        25.06705842
  Solvation  Ediel_sol  =         0.00000000
  ---------------------------------------------------
  free energy    TOTEN  =        -6.97127673 eV

  energy without entropy =       -6.97127673  energy(sigma->0) =       -6.97127673


--------------------------------------------------------------------------------------------------------




--------------------------------------- Iteration      2(   7)  ---------------------------------------


    POTLOK:  cpu time      0.7529: real time      0.7575
    SETDIJ:  cpu time      0.0883: real time      0.0890
     EDDAV:  cpu time      0.4485: real time      0.4526
       DOS:  cpu time      0.0005: real time      0.0005
    CHARGE:  cpu time      0.0540: real time      0.0550
    MIXING:  cpu time      0.0021: real time      0.0021
    --------------------------------------------
      LOOP:  cpu time      1.3462: real time      1.3567

 eigenvalue-minimisations  :   128
 total energy-change (2. order) :-0.2434604E-05  (-0.6899594E-08)
 number of electron       2.0000001 magnetization 
 augmentation part        0.0428726 magnetization 

 Broyden mixing:
  rms(total) = 0.24471E-04    rms(broyden)= 0.24468E-04
  rms(prec ) = 0.45209E-04
  weight for this iteration     100.00

 eigenvalues of (default mixing * dielectric matrix)
  average eigenvalue GAMMA=   2.1530
  4.1317  2.6963  0.9837  1.0536  2.2115  1.8410

 Free energy of the ion-electron system (eV)
  ---------------------------------------------------
  alpha Z        PSCENC =         0.00121808
  Ewald energy   TEWEN  =        15.71587062
  -Hartree energ DENC   =       -31.96080900
  -exchange      EXHF   =         0.00000000
  -V(xc)+E(xc)   XCENC  =         5.24295030
  PAW double counting   =        25.92963440      -25.98626054
  entropy T*S    EENTRO =        -0.00000000
  eigenvalues    EBANDS =       -20.98094145
  atomic energy  EATOM  =        25.06705842
  Solvation  Ediel_sol  =         0.00000000
  ---------------------------------------------------
  free energy    TOTEN  =        -6.97127917 eV

  energy without entropy =       -6.97127917  energy(sigma->0) =       -6.97127917


--------------------------------------------------------------------------------------------------------




--------------------------------------- Iteration      2(   8)  ---------------------------------------


    POTLOK:  cpu time      0.0638: real time      0.0650
    SETDIJ:  cpu time      0.0885: real time      0.0892
     EDDAV:  cpu time      0.1617: real time      0.1636
       DOS:  cpu time      0.0004: real time      0.0009
    CHARGE:  cpu time      0.0530: real time      0.0536
    MIXING:  cpu time      0.0030: real time      0.0030
    --------------------------------------------
      LOOP:  cpu time      0.3704: real time      0.3754

 eigenvalue-minimisations  :    64
 total energy-change (2. order) :-0.4810804E-05  (-0.2505380E-07)
 number of electron       2.0000001 magnetization 
 augmentation part        0.0428722 magnetization 

 Broyden mixing:
  rms(total) = 0.14364E-04    rms(broyden)= 0.14357E-04
  rms(prec ) = 0.20809E-04
  weight for this iteration     100.00

 eigenvalues of (default mixing * dielectric matrix)
  average eigenvalue GAMMA=   2.0897
  4.4408  2.6633  0.9912  1.0365  1.9769  1.7596  1.7596

 Free energy of the ion-electron system (eV)
  ---------------------------------------------------
  alpha Z        PSCENC =         0.00121808
  Ewald energy   TEWEN  =        15.71587062
  -Hartree energ DENC   =       -31.96217137
  -exchange      EXHF   =         0.00000000
  -V(xc)+E(xc)   XCENC  =         5.24306360
  PAW double counting   =        25.92803307      -25.98465754
  entropy T*S    EENTRO =        -0.00000000
  eigenvalues    EBANDS =       -20.97969887
  atomic energy  EATOM  =        25.06705842
  Solvation  Ediel_sol  =         0.00000000
  ---------------------------------------------------
  free energy    TOTEN  =        -6.97128398 eV

  energy without entropy =       -6.97128398  energy(sigma->0) =       -6.97128398


--------------------------------------------------------------------------------------------------------




--------------------------------------- Iteration      2(   9)  ---------------------------------------


    POTLOK:  cpu time      0.0649: real time      0.0659
    SETDIJ:  cpu time      0.0879: real time      0.0885
     EDDAV:  cpu time      0.2257: real time      0.2281
       DOS:  cpu time      0.0005: real time      0.0005
    CHARGE:  cpu time      0.0536: real time      0.0547
    MIXING:  cpu time      0.0022: real time      0.0022
    --------------------------------------------
      LOOP:  cpu time      0.4348: real time      0.4400

 eigenvalue-minimisations  :    96
 total energy-change (2. order) :-0.1374836E-05  (-0.1530964E-08)
 number of electron       2.0000001 magnetization 
 augmentation part        0.0428723 magnetization 

 Broyden mixing:
  rms(total) = 0.15470E-04    rms(broyden)= 0.15469E-04
  rms(prec ) = 0.19174E-04
  weight for this iteration     100.00

 eigenvalues of (default mixing * dielectric matrix)
  average eigenvalue GAMMA=   2.4194
  6.0579  3.6817  2.6647  2.0939  1.7186  1.0014  1.0014  1.1354

 Free energy of the ion-electron system (eV)
  ---------------------------------------------------
  alpha Z        PSCENC =         0.00121808
  Ewald energy   TEWEN  =        15.71587062
  -Hartree energ DENC   =       -31.96203126
  -exchange      EXHF   =         0.00000000
  -V(xc)+E(xc)   XCENC  =         5.24303114
  PAW double counting   =        25.92727428      -25.98389632
  entropy T*S    EENTRO =        -0.00000000
  eigenvalues    EBANDS =       -20.97981032
  atomic energy  EATOM  =        25.06705842
  Solvation  Ediel_sol  =         0.00000000
  ---------------------------------------------------
  free energy    TOTEN  =        -6.97128535 eV

  energy without entropy =       -6.97128535  energy(sigma->0) =       -6.97128535


--------------------------------------------------------------------------------------------------------




--------------------------------------- Iteration      2(  10)  ---------------------------------------


    POTLOK:  cpu time      0.0699: real time      0.0708
    SETDIJ:  cpu time      0.0877: real time      0.0884
     EDDAV:  cpu time      0.1614: real time      0.1632
       DOS:  cpu time      0.0004: real time      0.0004
    CHARGE:  cpu time      0.0533: real time      0.0543
    MIXING:  cpu time      0.0030: real time      0.0030
    --------------------------------------------
      LOOP:  cpu time      0.3757: real time      0.3802

 eigenvalue-minimisations  :    64
 total energy-change (2. order) :-0.1622418E-05  (-0.5015103E-08)
 number of electron       2.0000001 magnetization 
 augmentation part        0.0428722 magnetization 

 Broyden mixing:
  rms(total) = 0.55414E-05    rms(broyden)= 0.55397E-05
  rms(prec ) = 0.69282E-05
  weight for this iteration     100.00

 eigenvalues of (default mixing * dielectric matrix)
  average eigenvalue GAMMA=   2.3936
  6.2912  3.4305  2.5351  2.5351  2.0061  1.5205  0.9878  1.0277  1.2086

 Free energy of the ion-electron system (eV)
  ---------------------------------------------------
  alpha Z        PSCENC =         0.00121808
  Ewald energy   TEWEN  =        15.71587062
  -Hartree energ DENC   =       -31.96215788
  -exchange      EXHF   =         0.00000000
  -V(xc)+E(xc)   XCENC  =         5.24303347
  PAW double counting   =        25.92828022      -25.98490425
  entropy T*S    EENTRO =        -0.00000000
  eigenvalues    EBANDS =       -20.97968565
  atomic energy  EATOM  =        25.06705842
  Solvation  Ediel_sol  =         0.00000000
  ---------------------------------------------------
  free energy    TOTEN  =        -6.97128697 eV

  energy without entropy =       -6.97128697  energy(sigma->0) =       -6.97128697


--------------------------------------------------------------------------------------------------------




--------------------------------------- Iteration      2(  11)  ---------------------------------------


    POTLOK:  cpu time      0.0655: real time      0.0661
    SETDIJ:  cpu time      0.0888: real time      0.0895
     EDDAV:  cpu time      0.3012: real time      0.3049
       DOS:  cpu time      0.0006: real time      0.0006
    CHARGE:  cpu time      0.0536: real time      0.0547
    MIXING:  cpu time      0.0051: real time      0.0051
    --------------------------------------------
      LOOP:  cpu time      0.5148: real time      0.5209

 eigenvalue-minimisations  :   128
 total energy-change (2. order) :-0.5648909E-06  (-0.5398917E-09)
 number of electron       2.0000001 magnetization 
 augmentation part        0.0428721 magnetization 

 Broyden mixing:
  rms(total) = 0.21744E-05    rms(broyden)= 0.21720E-05
  rms(prec ) = 0.32541E-05
  weight for this iteration     100.00

 eigenvalues of (default mixing * dielectric matrix)
  average eigenvalue GAMMA=   2.5619
  7.4359  4.5658  3.1667  2.6284  2.0847  1.7450  1.1039  0.9973  0.9973  0.8940

 Free energy of the ion-electron system (eV)
  ---------------------------------------------------
  alpha Z        PSCENC =         0.00121808
  Ewald energy   TEWEN  =        15.71587062
  -Hartree energ DENC   =       -31.96219125
  -exchange      EXHF   =         0.00000000
  -V(xc)+E(xc)   XCENC  =         5.24303555
  PAW double counting   =        25.92794448      -25.98456820
  entropy T*S    EENTRO =        -0.00000000
  eigenvalues    EBANDS =       -20.97965525
  atomic energy  EATOM  =        25.06705842
  Solvation  Ediel_sol  =         0.00000000
  ---------------------------------------------------
  free energy    TOTEN  =        -6.97128754 eV

  energy without entropy =       -6.97128754  energy(sigma->0) =       -6.97128754


--------------------------------------------------------------------------------------------------------




--------------------------------------- Iteration      2(  12)  ---------------------------------------


    POTLOK:  cpu time      0.0690: real time      0.0701
    SETDIJ:  cpu time      0.0883: real time      0.0890
     EDDAV:  cpu time      0.3051: real time      0.3082
       DOS:  cpu time      0.0006: real time      0.0006
    CHARGE:  cpu time      0.0538: real time      0.0549
    MIXING:  cpu time      0.0025: real time      0.0025
    --------------------------------------------
      LOOP:  cpu time      0.5193: real time      0.5253

 eigenvalue-minimisations  :   128
 total energy-change (2. order) :-0.2684347E-06  (-0.3483791E-09)
 number of electron       2.0000001 magnetization 
 augmentation part        0.0428721 magnetization 

 Broyden mixing:
  rms(total) = 0.18561E-05    rms(broyden)= 0.18544E-05
  rms(prec ) = 0.22359E-05
  weight for this iteration     100.00

 eigenvalues of (default mixing * dielectric matrix)
  average eigenvalue GAMMA=   2.7933
  8.2191  5.2764  3.8354  2.9354  2.5464  2.0751  1.7599  1.0881  0.9975  0.9975
  0.9950

 Free energy of the ion-electron system (eV)
  ---------------------------------------------------
  alpha Z        PSCENC =         0.00121808
  Ewald energy   TEWEN  =        15.71587062
  -Hartree energ DENC   =       -31.96218381
  -exchange      EXHF   =         0.00000000
  -V(xc)+E(xc)   XCENC  =         5.24303252
  PAW double counting   =        25.92786145      -25.98448504
  entropy T*S    EENTRO =        -0.00000000
  eigenvalues    EBANDS =       -20.97966006
  atomic energy  EATOM  =        25.06705842
  Solvation  Ediel_sol  =         0.00000000
  ---------------------------------------------------
  free energy    TOTEN  =        -6.97128781 eV

  energy without entropy =       -6.97128781  energy(sigma->0) =       -6.97128781


--------------------------------------------------------------------------------------------------------




--------------------------------------- Iteration      2(  13)  ---------------------------------------


    POTLOK:  cpu time      0.0636: real time      0.0648
    SETDIJ:  cpu time      0.0884: real time      0.0890
     EDDAV:  cpu time      0.3009: real time      0.3044
       DOS:  cpu time      0.0006: real time      0.0007
    CHARGE:  cpu time      0.0537: real time      0.0547
    MIXING:  cpu time      0.0029: real time      0.0029
    --------------------------------------------
      LOOP:  cpu time      0.5101: real time      0.5165

 eigenvalue-minimisations  :   128
 total energy-change (2. order) :-0.1398685E-06  (-0.9680434E-10)
 number of electron       2.0000001 magnetization 
 augmentation part        0.0428721 magnetization 

 Broyden mixing:
  rms(total) = 0.46174E-06    rms(broyden)= 0.45476E-06
  rms(prec ) = 0.63584E-06
  weight for this iteration     100.00

 eigenvalues of (default mixing * dielectric matrix)
  average eigenvalue GAMMA=   2.6635
  8.3979  5.3400  3.7864  2.9198  2.5961  2.0857  1.7641  1.0757  0.9734  0.9734
  1.0247  1.0247

 Free energy of the ion-electron system (eV)
  ---------------------------------------------------
  alpha Z        PSCENC =         0.00121808
  Ewald energy   TEWEN  =        15.71587062
  -Hartree energ DENC   =       -31.96219036
  -exchange      EXHF   =         0.00000000
  -V(xc)+E(xc)   XCENC  =         5.24303213
  PAW double counting   =        25.92798535      -25.98460901
  entropy T*S    EENTRO =        -0.00000000
  eigenvalues    EBANDS =       -20.97965318
  atomic energy  EATOM  =        25.06705842
  Solvation  Ediel_sol  =         0.00000000
  ---------------------------------------------------
  free energy    TOTEN  =        -6.97128795 eV

  energy without entropy =       -6.97128795  energy(sigma->0) =       -6.97128795


--------------------------------------------------------------------------------------------------------




--------------------------------------- Iteration      2(  14)  ---------------------------------------


    POTLOK:  cpu time      0.0646: real time      0.0656
    SETDIJ:  cpu time      0.0878: real time      0.0887
     EDDAV:  cpu time      0.1688: real time      0.1708
       DOS:  cpu time      0.0005: real time      0.0005
    --------------------------------------------
      LOOP:  cpu time      0.3217: real time      0.3256

 eigenvalue-minimisations  :    64
 total energy-change (2. order) :-0.2224979E-07  (-0.1033840E-11)
 number of electron       2.0000001 magnetization 
 augmentation part        0.0428721 magnetization 

 Free energy of the ion-electron system (eV)
  ---------------------------------------------------
  alpha Z        PSCENC =         0.00121808
  Ewald energy   TEWEN  =        15.71587062
  -Hartree energ DENC   =       -31.96218661
  -exchange      EXHF   =         0.00000000
  -V(xc)+E(xc)   XCENC  =         5.24303133
  PAW double counting   =        25.92799636      -25.98462001
  entropy T*S    EENTRO =        -0.00000000
  eigenvalues    EBANDS =       -20.97965615
  atomic energy  EATOM  =        25.06705842
  Solvation  Ediel_sol  =         0.00000000
  ---------------------------------------------------
  free energy    TOTEN  =        -6.97128797 eV

  energy without entropy =       -6.97128797  energy(sigma->0) =       -6.97128797


--------------------------------------------------------------------------------------------------------




 average (electrostatic) potential at core
  the test charge radii are     0.5201
  (the norm of the test charge is              1.0000)
       1 -41.9328       2 -41.9334



 E-fermi : -10.4191     XC(G=0):  -0.0639     alpha+bet : -0.0069

 val. band max:      -10.4898280775   @ k =   0.0000   0.0000   0.0000
 cond. band min:      -0.0568369948   @ k =   0.0000   0.0000   0.0000
 fundamental gap:     10.4329910826
 Fermi energy:       -10.4191128438

 k-point     1 :       0.0000    0.0000    0.0000
  band No.  band energies     occupation 
      1     -10.4898      2.00000
      2      -0.0568      0.00000
      3       0.1507      0.00000
      4       0.2368      0.00000
      5       0.3155      0.00000
      6       0.3156      0.00000
      7       0.3558      0.00000
      8       0.3561      0.00000
      9       0.4527      0.00000
     10       0.6030      0.00000
     11       0.6030      0.00000
     12       0.6336      0.00000
     13       0.7285      0.00000
     14       0.7291      0.00000
     15       0.7331      0.00000
     16       0.7332      0.00000
     17       0.7347      0.00000
     18       0.7360      0.00000
     19       0.7362      0.00000
     20       0.7369      0.00000
     21       0.8887      0.00000
     22       1.0088      0.00000
     23       1.0089      0.00000
     24       1.0730      0.00000
     25       1.1028      0.00000
     26       1.1030      0.00000
     27       1.1053      0.00000
     28       1.1162      0.00000
     29       1.2114      0.00000
     30       1.3470      0.00000
     31       1.3471      0.00000
     32       1.4620      0.00000


--------------------------------------------------------------------------------------------------------


 soft charge-density along one line, spin component           1
         0         1         2         3         4         5         6         7         8         9
 total charge-density along one line

 pseudopotential strength for first ion, spin component:           1
 -2.345  -4.042  -0.000   0.000  -0.010
 -4.042  -6.881  -0.000   0.000  -0.021
 -0.000  -0.000  -0.342  -0.000   0.000
  0.000   0.000  -0.000  -0.342   0.000
 -0.010  -0.021   0.000   0.000  -0.316
 total augmentation occupancy for first ion, spin component:           1
  3.151  -0.481   0.000   0.000   0.405
 -0.481   0.073  -0.000  -0.000  -0.062
  0.000  -0.000   0.000   0.000   0.000
  0.000  -0.000   0.000   0.000   0.000
  0.405  -0.062   0.000   0.000   0.052


------------------------ aborting loop because EDIFF is reached ----------------------------------------


    CHARGE:  cpu time      0.0542: real time      0.0548
    FORLOC:  cpu time      0.0012: real time      0.0012
    FORNL :  cpu time      0.2427: real time      0.2457
    STRESS:  cpu time      0.8435: real time      0.8540
    FORHAR:  cpu time      0.0157: real time      0.0158
    MIXING:  cpu time      0.0026: real time      0.0026
    OFIELD:  cpu time      0.0000: real time      0.0000

 ---------------------------------------------------------------------------------------------

         DFTD3 V3.0 Rev 1        
 Edisp (eV)   -0.00000

 E6    (eV) :    -0.0000
 E8    (eV) :    -0.0000
 % E8        :  4.47
    FORVDW:  cpu time      0.0079: real time      0.0080

  FORCE on cell =-STRESS in cart. coord.  units (eV):
  Direction    XX          YY          ZZ          XY          YZ          ZX
  --------------------------------------------------------------------------------------
  Alpha Z     0.00122     0.00122     0.00122
  Ewald      18.44168    -1.36290    -1.36290     0.00000     0.00000     0.00000
  Hartree    12.11714     9.92253     9.92253     0.00000    -0.00000     0.00000
  E(xc)      -5.89901    -6.19323    -6.19323     0.00000     0.00000     0.00000
  Local     -32.07794   -18.54317   -18.54317    -0.00000    -0.00000    -0.00000
  n-local    -6.61448    -5.57406    -5.57406    -0.00000    -0.00000    -0.00000
  augment     0.20079     0.28117     0.28118    -0.00000     0.00000     0.00000
  Kinetic    14.21027    21.34658    21.34658    -0.00000    -0.00000    -0.00000
  Fock        0.00000     0.00000     0.00000     0.00000     0.00000     0.00000
  vdW         0.00003    -0.00000    -0.00000     0.00000     0.00000     0.00000
  -------------------------------------------------------------------------------------
  Total       0.37970    -0.12187    -0.12186    -0.00000     0.00000     0.00000
  in kB       0.07604    -0.02441    -0.02441    -0.00000     0.00000     0.00000
  external pressure =        0.01 kB  Pullay stress =        0.00 kB


 VOLUME and BASIS-vectors are now :
 -----------------------------------------------------------------------------
  energy-cutoff  :      400.00
  volume of cell :     8000.00
      direct lattice vectors                 reciprocal lattice vectors
    20.000000000  0.000000000  0.000000000     0.050000000  0.000000000  0.000000000
     0.000000000 20.000000000  0.000000000     0.000000000  0.050000000  0.000000000
     0.000000000  0.000000000 20.000000000     0.000000000  0.000000000  0.050000000

  length of vectors
    20.000000000 20.000000000 20.000000000     0.050000000  0.050000000  0.050000000


 FORCES acting on ions
    electron-ion (+dipol)            ewald-force                    non-local-force                 convergence-correction
 -----------------------------------------------------------------------------------------------
   0.211E+02 0.426E-08 0.554E-07   -.272E+02 -.553E-08 -.109E-06   0.540E+01 0.667E-08 0.473E-06   -.162E-05 0.314E-12 -.240E-09
   -.211E+02 -.432E-08 -.741E-07   0.272E+02 0.553E-08 0.109E-06   -.540E+01 -.445E-08 -.358E-06   0.841E-06 0.688E-12 -.242E-09
 -----------------------------------------------------------------------------------------------
   -.591E-04 -.596E-10 -.187E-07   0.000E+00 -.166E-18 0.315E-18   -.244E-03 0.222E-08 0.115E-06   -.776E-06 0.100E-11 -.482E-09


 POSITION                                       TOTAL-FORCE (eV/Angst)
 -----------------------------------------------------------------------------------
      9.64636     10.00000     10.00000        -0.734549      0.000000      0.000000
     10.37364     10.00000     10.00000         0.734549     -0.000000     -0.000000
 -----------------------------------------------------------------------------------
    total drift:                               -0.000304      0.000000      0.000000


--------------------------------------------------------------------------------------------------------



  FREE ENERGIE OF THE ION-ELECTRON SYSTEM (eV)
  ---------------------------------------------------
  free  energy   TOTEN  =        -6.97129159 eV

  energy  without entropy=       -6.97129159  energy(sigma->0) =       -6.97129159

 d Force =-0.7330554E-02[-0.147E-01, 0.299E-04]  d Energy =-0.7170052E-02-0.161E-03
 d Force =-0.5299929E+00[-0.544E+00,-0.516E+00]  d Ewald  =-0.5297977E+00-0.195E-03


--------------------------------------------------------------------------------------------------------


    POTLOK:  cpu time      0.1510: real time      0.1522


--------------------------------------------------------------------------------------------------------


 Finite differences progress:
  Degree of freedom:   1/  6
  Displacement:        1/  2
  Total:               1/ 12
    WAVPRE:  cpu time      0.0048: real time      0.0054
    FEWALD:  cpu time      0.0003: real time      0.0003
    ORTHCH:  cpu time      0.0128: real time      0.0132
     LOOP+:  cpu time      9.1405: real time      9.2451


--------------------------------------- Ionic step        3  -------------------------------------------




--------------------------------------- Iteration      3(   1)  ---------------------------------------


    POTLOK:  cpu time      0.0609: real time      0.0622
    SETDIJ:  cpu time      0.0890: real time      0.0897
     EDDAV:  cpu time      0.1598: real time      0.1617
       DOS:  cpu time      0.0006: real time      0.0006
    CHARGE:  cpu time      0.0583: real time      0.0595
    MIXING:  cpu time      0.0020: real time      0.0020
    --------------------------------------------
      LOOP:  cpu time      0.3705: real time      0.3756

 eigenvalue-minimisations  :    64
 total energy-change (2. order) :-0.3534074E-02  (-0.6870625E-01)
 number of electron       2.0000001 magnetization 
 augmentation part        0.0404039 magnetization 

 Broyden mixing:
  rms(total) = 0.39962E-01    rms(broyden)= 0.39911E-01
  rms(prec ) = 0.42234E-01
  weight for this iteration     100.00

 Free energy of the ion-electron system (eV)
  ---------------------------------------------------
  alpha Z        PSCENC =         0.00121808
  Ewald energy   TEWEN  =        14.68390371
  -Hartree energ DENC   =       -31.61788431
  -exchange      EXHF   =         0.00000000
  -V(xc)+E(xc)   XCENC  =         5.20101744
  PAW double counting   =        25.92795797      -25.98458161
  entropy T*S    EENTRO =        -0.00000000
  eigenvalues    EBANDS =       -20.25351171
  atomic energy  EATOM  =        25.06705842
  Solvation  Ediel_sol  =         0.00000000
  ---------------------------------------------------
  free energy    TOTEN  =        -6.97482202 eV

  energy without entropy =       -6.97482202  energy(sigma->0) =       -6.97482202


--------------------------------------------------------------------------------------------------------




--------------------------------------- Iteration      3(   2)  ---------------------------------------


    POTLOK:  cpu time      0.0638: real time      0.0648
    SETDIJ:  cpu time      0.0890: real time      0.0897
     EDDAV:  cpu time      0.2989: real time      0.3023
       DOS:  cpu time      0.0007: real time      0.0007
    CHARGE:  cpu time      0.0536: real time      0.0546
    MIXING:  cpu time      0.0019: real time      0.0019
    --------------------------------------------
      LOOP:  cpu time      0.5078: real time      0.5140

 eigenvalue-minimisations  :   128
 total energy-change (2. order) : 0.2482274E-02  (-0.4403302E-03)
 number of electron       2.0000001 magnetization 
 augmentation part        0.0405396 magnetization 

 Broyden mixing:
  rms(total) = 0.21855E-01    rms(broyden)= 0.21852E-01
  rms(prec ) = 0.23040E-01
  weight for this iteration     100.00

 eigenvalues of (default mixing * dielectric matrix)
  average eigenvalue GAMMA=   2.1769
  2.1769

 Free energy of the ion-electron system (eV)
  ---------------------------------------------------
  alpha Z        PSCENC =         0.00121808
  Ewald energy   TEWEN  =        14.68390371
  -Hartree energ DENC   =       -31.43917865
  -exchange      EXHF   =         0.00000000
  -V(xc)+E(xc)   XCENC  =         5.17658835
  PAW double counting   =        24.68904815      -24.74288522
  entropy T*S    EENTRO =        -0.00000000
  eigenvalues    EBANDS =       -20.40809259
  atomic energy  EATOM  =        25.06705842
  Solvation  Ediel_sol  =         0.00000000
  ---------------------------------------------------
  free energy    TOTEN  =        -6.97233975 eV

  energy without entropy =       -6.97233975  energy(sigma->0) =       -6.97233975


--------------------------------------------------------------------------------------------------------




--------------------------------------- Iteration      3(   3)  ---------------------------------------


    POTLOK:  cpu time      0.0679: real time      0.0689
    SETDIJ:  cpu time      0.0880: real time      0.0887
     EDDAV:  cpu time      0.1607: real time      0.1626
       DOS:  cpu time      0.0006: real time      0.0006
    CHARGE:  cpu time      0.0546: real time      0.0557
    MIXING:  cpu time      0.0021: real time      0.0021
    --------------------------------------------
      LOOP:  cpu time      0.3738: real time      0.3785

 eigenvalue-minimisations  :    64
 total energy-change (2. order) : 0.5822615E-03  (-0.3532675E-03)
 number of electron       2.0000001 magnetization 
 augmentation part        0.0407040 magnetization 

 Broyden mixing:
  rms(total) = 0.21386E-02    rms(broyden)= 0.21342E-02
  rms(prec ) = 0.23356E-02
  weight for this iteration     100.00

 eigenvalues of (default mixing * dielectric matrix)
  average eigenvalue GAMMA=   1.5270
  0.9551  2.0988

 Free energy of the ion-electron system (eV)
  ---------------------------------------------------
  alpha Z        PSCENC =         0.00121808
  Ewald energy   TEWEN  =        14.68390371
  -Hartree energ DENC   =       -31.23404335
  -exchange      EXHF   =         0.00000000
  -V(xc)+E(xc)   XCENC  =         5.14866286
  PAW double counting   =        23.19902127      -23.24961114
  entropy T*S    EENTRO =        -0.00000000
  eigenvalues    EBANDS =       -20.58796734
  atomic energy  EATOM  =        25.06705842
  Solvation  Ediel_sol  =         0.00000000
  ---------------------------------------------------
  free energy    TOTEN  =        -6.97175749 eV

  energy without entropy =       -6.97175749  energy(sigma->0) =       -6.97175749


--------------------------------------------------------------------------------------------------------




--------------------------------------- Iteration      3(   4)  ---------------------------------------


    POTLOK:  cpu time      0.0642: real time      0.0656
    SETDIJ:  cpu time      0.0907: real time      0.0915
     EDDAV:  cpu time      0.3019: real time      0.3052
       DOS:  cpu time      0.0007: real time      0.0007
    CHARGE:  cpu time      0.0534: real time      0.0544
    MIXING:  cpu time      0.0025: real time      0.0025
    --------------------------------------------
      LOOP:  cpu time      0.5136: real time      0.5200

 eigenvalue-minimisations  :   128
 total energy-change (2. order) :-0.2267661E-04  (-0.4308989E-05)
 number of electron       2.0000001 magnetization 
 augmentation part        0.0407021 magnetization 

 Broyden mixing:
  rms(total) = 0.12506E-02    rms(broyden)= 0.12502E-02
  rms(prec ) = 0.13560E-02
  weight for this iteration     100.00

 eigenvalues of (default mixing * dielectric matrix)
  average eigenvalue GAMMA=   1.8341
  1.0762  1.9935  2.4325

 Free energy of the ion-electron system (eV)
  ---------------------------------------------------
  alpha Z        PSCENC =         0.00121808
  Ewald energy   TEWEN  =        14.68390371
  -Hartree energ DENC   =       -31.23881561
  -exchange      EXHF   =         0.00000000
  -V(xc)+E(xc)   XCENC  =         5.14953140
  PAW double counting   =        23.18573291      -23.23634309
  entropy T*S    EENTRO =        -0.00000000
  eigenvalues    EBANDS =       -20.58406599
  atomic energy  EATOM  =        25.06705842
  Solvation  Ediel_sol  =         0.00000000
  ---------------------------------------------------
  free energy    TOTEN  =        -6.97178016 eV

  energy without entropy =       -6.97178016  energy(sigma->0) =       -6.97178016


--------------------------------------------------------------------------------------------------------




--------------------------------------- Iteration      3(   5)  ---------------------------------------


    POTLOK:  cpu time      0.0639: real time      0.0653
    SETDIJ:  cpu time      0.0878: real time      0.0884
     EDDAV:  cpu time      0.3002: real time      0.3034
       DOS:  cpu time      0.0005: real time      0.0005
    CHARGE:  cpu time      0.0539: real time      0.0550
    MIXING:  cpu time      0.0019: real time      0.0019
    --------------------------------------------
      LOOP:  cpu time      0.5082: real time      0.5145

 eigenvalue-minimisations  :   128
 total energy-change (2. order) :-0.2635657E-04  (-0.2011406E-05)
 number of electron       2.0000001 magnetization 
 augmentation part        0.0407043 magnetization 

 Broyden mixing:
  rms(total) = 0.30595E-03    rms(broyden)= 0.30574E-03
  rms(prec ) = 0.35886E-03
  weight for this iteration     100.00

 eigenvalues of (default mixing * dielectric matrix)
  average eigenvalue GAMMA=   1.7391
  2.4831  1.9482  1.2626  1.2626

 Free energy of the ion-electron system (eV)
  ---------------------------------------------------
  alpha Z        PSCENC =         0.00121808
  Ewald energy   TEWEN  =        14.68390371
  -Hartree energ DENC   =       -31.23276146
  -exchange      EXHF   =         0.00000000
  -V(xc)+E(xc)   XCENC  =         5.14915222
  PAW double counting   =        23.07744738      -23.12790657
  entropy T*S    EENTRO =        -0.00000000
  eigenvalues    EBANDS =       -20.58991830
  atomic energy  EATOM  =        25.06705842
  Solvation  Ediel_sol  =         0.00000000
  ---------------------------------------------------
  free energy    TOTEN  =        -6.97180652 eV

  energy without entropy =       -6.97180652  energy(sigma->0) =       -6.97180652


--------------------------------------------------------------------------------------------------------




--------------------------------------- Iteration      3(   6)  ---------------------------------------


    POTLOK:  cpu time      0.0666: real time      0.0689
    SETDIJ:  cpu time      0.0884: real time      0.0890
     EDDAV:  cpu time      0.3022: real time      0.3054
       DOS:  cpu time      0.0003: real time      0.0003
    CHARGE:  cpu time      0.0537: real time      0.0548
    MIXING:  cpu time      0.0020: real time      0.0020
    --------------------------------------------
      LOOP:  cpu time      0.5132: real time      0.5204

 eigenvalue-minimisations  :   128
 total energy-change (2. order) :-0.5837118E-05  (-0.6653124E-07)
 number of electron       2.0000001 magnetization 
 augmentation part        0.0407046 magnetization 

 Broyden mixing:
  rms(total) = 0.11420E-03    rms(broyden)= 0.11419E-03
  rms(prec ) = 0.17053E-03
  weight for this iteration     100.00

 eigenvalues of (default mixing * dielectric matrix)
  average eigenvalue GAMMA=   1.8016
  2.8307  2.2254  1.7549  1.0986  1.0986

 Free energy of the ion-electron system (eV)
  ---------------------------------------------------
  alpha Z        PSCENC =         0.00121808
  Ewald energy   TEWEN  =        14.68390371
  -Hartree energ DENC   =       -31.23118215
  -exchange      EXHF   =         0.00000000
  -V(xc)+E(xc)   XCENC  =         5.14903978
  PAW double counting   =        23.07345149      -23.12390790
  entropy T*S    EENTRO =        -0.00000000
  eigenvalues    EBANDS =       -20.59139378
  atomic energy  EATOM  =        25.06705842
  Solvation  Ediel_sol  =         0.00000000
  ---------------------------------------------------
  free energy    TOTEN  =        -6.97181236 eV

  energy without entropy =       -6.97181236  energy(sigma->0) =       -6.97181236


--------------------------------------------------------------------------------------------------------




--------------------------------------- Iteration      3(   7)  ---------------------------------------


    POTLOK:  cpu time      0.0635: real time      0.0647
    SETDIJ:  cpu time      0.0884: real time      0.0891
     EDDAV:  cpu time      0.3034: real time      0.3067
       DOS:  cpu time      0.0004: real time      0.0004
    CHARGE:  cpu time      0.0533: real time      0.0545
    MIXING:  cpu time      0.0033: real time      0.0033
    --------------------------------------------
      LOOP:  cpu time      0.5124: real time      0.5188

 eigenvalue-minimisations  :   128
 total energy-change (2. order) :-0.6669818E-05  (-0.7370421E-07)
 number of electron       2.0000001 magnetization 
 augmentation part        0.0407047 magnetization 

 Broyden mixing:
  rms(total) = 0.48248E-04    rms(broyden)= 0.48244E-04
  rms(prec ) = 0.91228E-04
  weight for this iteration     100.00

 eigenvalues of (default mixing * dielectric matrix)
  average eigenvalue GAMMA=   2.1503
  4.3460  2.6534  2.0752  1.6230  1.0133  1.1907

 Free energy of the ion-electron system (eV)
  ---------------------------------------------------
  alpha Z        PSCENC =         0.00121808
  Ewald energy   TEWEN  =        14.68390371
  -Hartree energ DENC   =       -31.22960940
  -exchange      EXHF   =         0.00000000
  -V(xc)+E(xc)   XCENC  =         5.14895087
  PAW double counting   =        23.07263232      -23.12309275
  entropy T*S    EENTRO =        -0.00000000
  eigenvalues    EBANDS =       -20.59288029
  atomic energy  EATOM  =        25.06705842
  Solvation  Ediel_sol  =         0.00000000
  ---------------------------------------------------
  free energy    TOTEN  =        -6.97181903 eV

  energy without entropy =       -6.97181903  energy(sigma->0) =       -6.97181903


--------------------------------------------------------------------------------------------------------




--------------------------------------- Iteration      3(   8)  ---------------------------------------


    POTLOK:  cpu time      0.0644: real time      0.0654
    SETDIJ:  cpu time      0.0878: real time      0.0885
     EDDAV:  cpu time      0.3021: real time      0.3052
       DOS:  cpu time      0.0004: real time      0.0004
    CHARGE:  cpu time      0.0527: real time      0.0538
    MIXING:  cpu time      0.0035: real time      0.0036
    --------------------------------------------
      LOOP:  cpu time      0.5110: real time      0.5168

 eigenvalue-minimisations  :   128
 total energy-change (2. order) :-0.3793640E-05  (-0.8889183E-07)
 number of electron       2.0000001 magnetization 
 augmentation part        0.0407055 magnetization 

 Broyden mixing:
  rms(total) = 0.20631E-04    rms(broyden)= 0.20618E-04
  rms(prec ) = 0.36338E-04
  weight for this iteration     100.00

 eigenvalues of (default mixing * dielectric matrix)
  average eigenvalue GAMMA=   2.1227
  4.5339  2.7392  2.1165  0.9976  1.1889  1.7757  1.5072

 Free energy of the ion-electron system (eV)
  ---------------------------------------------------
  alpha Z        PSCENC =         0.00121808
  Ewald energy   TEWEN  =        14.68390371
  -Hartree energ DENC   =       -31.22701072
  -exchange      EXHF   =         0.00000000
  -V(xc)+E(xc)   XCENC  =         5.14873379
  PAW double counting   =        23.07613606      -23.12660248
  entropy T*S    EENTRO =        -0.00000000
  eigenvalues    EBANDS =       -20.59525968
  atomic energy  EATOM  =        25.06705842
  Solvation  Ediel_sol  =         0.00000000
  ---------------------------------------------------
  free energy    TOTEN  =        -6.97182282 eV

  energy without entropy =       -6.97182282  energy(sigma->0) =       -6.97182282


--------------------------------------------------------------------------------------------------------




--------------------------------------- Iteration      3(   9)  ---------------------------------------


    POTLOK:  cpu time      0.0640: real time      0.0650
    SETDIJ:  cpu time      0.0880: real time      0.0887
     EDDAV:  cpu time      0.1622: real time      0.1640
       DOS:  cpu time      0.0005: real time      0.0005
    CHARGE:  cpu time      0.0534: real time      0.0545
    MIXING:  cpu time      0.0022: real time      0.0022
    --------------------------------------------
      LOOP:  cpu time      0.3702: real time      0.3749

 eigenvalue-minimisations  :    64
 total energy-change (2. order) :-0.1923619E-05  (-0.7530208E-08)
 number of electron       2.0000001 magnetization 
 augmentation part        0.0407056 magnetization 

 Broyden mixing:
  rms(total) = 0.12225E-04    rms(broyden)= 0.12220E-04
  rms(prec ) = 0.21694E-04
  weight for this iteration     100.00

 eigenvalues of (default mixing * dielectric matrix)
  average eigenvalue GAMMA=   2.4288
  6.0236  3.7863  2.6630  2.1047  1.6568  1.1822  1.0432  0.9708

 Free energy of the ion-electron system (eV)
  ---------------------------------------------------
  alpha Z        PSCENC =         0.00121808
  Ewald energy   TEWEN  =        14.68390371
  -Hartree energ DENC   =       -31.22685726
  -exchange      EXHF   =         0.00000000
  -V(xc)+E(xc)   XCENC  =         5.14873280
  PAW double counting   =        23.07542613      -23.12589082
  entropy T*S    EENTRO =        -0.00000000
  eigenvalues    EBANDS =       -20.59541580
  atomic energy  EATOM  =        25.06705842
  Solvation  Ediel_sol  =         0.00000000
  ---------------------------------------------------
  free energy    TOTEN  =        -6.97182474 eV

  energy without entropy =       -6.97182474  energy(sigma->0) =       -6.97182474


--------------------------------------------------------------------------------------------------------




--------------------------------------- Iteration      3(  10)  ---------------------------------------


    POTLOK:  cpu time      0.0649: real time      0.0658
    SETDIJ:  cpu time      0.0873: real time      0.0882
     EDDAV:  cpu time      0.1621: real time      0.1640
       DOS:  cpu time      0.0003: real time      0.0003
    CHARGE:  cpu time      0.0536: real time      0.0546
    MIXING:  cpu time      0.0024: real time      0.0024
    --------------------------------------------
      LOOP:  cpu time      0.3706: real time      0.3754

 eigenvalue-minimisations  :    64
 total energy-change (2. order) :-0.1009190E-05  (-0.7271389E-08)
 number of electron       2.0000001 magnetization 
 augmentation part        0.0407056 magnetization 

 Broyden mixing:
  rms(total) = 0.70827E-05    rms(broyden)= 0.70774E-05
  rms(prec ) = 0.10632E-04
  weight for this iteration     100.00

 eigenvalues of (default mixing * dielectric matrix)
  average eigenvalue GAMMA=   2.6598
  7.0577  4.3018  3.0492  2.6181  2.0735  1.6480  1.1816  1.0171  0.9918

 Free energy of the ion-electron system (eV)
  ---------------------------------------------------
  alpha Z        PSCENC =         0.00121808
  Ewald energy   TEWEN  =        14.68390371
  -Hartree energ DENC   =       -31.22679446
  -exchange      EXHF   =         0.00000000
  -V(xc)+E(xc)   XCENC  =         5.14874842
  PAW double counting   =        23.07469826      -23.12516175
  entropy T*S    EENTRO =        -0.00000000
  eigenvalues    EBANDS =       -20.59549644
  atomic energy  EATOM  =        25.06705842
  Solvation  Ediel_sol  =         0.00000000
  ---------------------------------------------------
  free energy    TOTEN  =        -6.97182575 eV

  energy without entropy =       -6.97182575  energy(sigma->0) =       -6.97182575


--------------------------------------------------------------------------------------------------------




--------------------------------------- Iteration      3(  11)  ---------------------------------------


    POTLOK:  cpu time      0.0640: real time      0.0652
    SETDIJ:  cpu time      0.0882: real time      0.0888
     EDDAV:  cpu time      0.3031: real time      0.3064
       DOS:  cpu time      0.0005: real time      0.0005
    CHARGE:  cpu time      0.0536: real time      0.0547
    MIXING:  cpu time      0.0025: real time      0.0025
    --------------------------------------------
      LOOP:  cpu time      0.5120: real time      0.5182

 eigenvalue-minimisations  :   128
 total energy-change (2. order) :-0.1055283E-05  (-0.2135607E-08)
 number of electron       2.0000001 magnetization 
 augmentation part        0.0407056 magnetization 

 Broyden mixing:
  rms(total) = 0.54681E-05    rms(broyden)= 0.54613E-05
  rms(prec ) = 0.64542E-05
  weight for this iteration     100.00

 eigenvalues of (default mixing * dielectric matrix)
  average eigenvalue GAMMA=   2.6478
  7.5318  4.5663  3.2144  2.6260  2.1726  1.0026  1.0041  1.1813  1.7109  1.4678

 Free energy of the ion-electron system (eV)
  ---------------------------------------------------
  alpha Z        PSCENC =         0.00121808
  Ewald energy   TEWEN  =        14.68390371
  -Hartree energ DENC   =       -31.22680810
  -exchange      EXHF   =         0.00000000
  -V(xc)+E(xc)   XCENC  =         5.14875746
  PAW double counting   =        23.07575284      -23.12621817
  entropy T*S    EENTRO =        -0.00000000
  eigenvalues    EBANDS =       -20.59549105
  atomic energy  EATOM  =        25.06705842
  Solvation  Ediel_sol  =         0.00000000
  ---------------------------------------------------
  free energy    TOTEN  =        -6.97182681 eV

  energy without entropy =       -6.97182681  energy(sigma->0) =       -6.97182681


--------------------------------------------------------------------------------------------------------




--------------------------------------- Iteration      3(  12)  ---------------------------------------


    POTLOK:  cpu time      0.0635: real time      0.0646
    SETDIJ:  cpu time      0.0877: real time      0.0884
     EDDAV:  cpu time      0.3060: real time      0.3094
       DOS:  cpu time      0.0006: real time      0.0006
    CHARGE:  cpu time      0.0538: real time      0.0549
    MIXING:  cpu time      0.0028: real time      0.0028
    --------------------------------------------
      LOOP:  cpu time      0.5143: real time      0.5207

 eigenvalue-minimisations  :   128
 total energy-change (2. order) :-0.2274672E-06  (-0.1097327E-09)
 number of electron       2.0000001 magnetization 
 augmentation part        0.0407056 magnetization 

 Broyden mixing:
  rms(total) = 0.31700E-05    rms(broyden)= 0.31583E-05
  rms(prec ) = 0.38221E-05
  weight for this iteration     100.00

 eigenvalues of (default mixing * dielectric matrix)
  average eigenvalue GAMMA=   2.8047
  8.3442  5.2658  3.7494  2.8830  2.5842  2.1289  1.6717  1.1753  0.9917  1.0064
  1.0514

 Free energy of the ion-electron system (eV)
  ---------------------------------------------------
  alpha Z        PSCENC =         0.00121808
  Ewald energy   TEWEN  =        14.68390371
  -Hartree energ DENC   =       -31.22672833
  -exchange      EXHF   =         0.00000000
  -V(xc)+E(xc)   XCENC  =         5.14874757
  PAW double counting   =        23.07536957      -23.12583407
  entropy T*S    EENTRO =        -0.00000000
  eigenvalues    EBANDS =       -20.59556199
  atomic energy  EATOM  =        25.06705842
  Solvation  Ediel_sol  =         0.00000000
  ---------------------------------------------------
  free energy    TOTEN  =        -6.97182704 eV

  energy without entropy =       -6.97182704  energy(sigma->0) =       -6.97182704


--------------------------------------------------------------------------------------------------------




--------------------------------------- Iteration      3(  13)  ---------------------------------------


    POTLOK:  cpu time      0.0660: real time      0.0671
    SETDIJ:  cpu time      0.0872: real time      0.0878
     EDDAV:  cpu time      0.3027: real time      0.3061
       DOS:  cpu time      0.0013: real time      0.0013
    CHARGE:  cpu time      0.0539: real time      0.0549
    MIXING:  cpu time      0.0037: real time      0.0037
    --------------------------------------------
      LOOP:  cpu time      0.5148: real time      0.5209

 eigenvalue-minimisations  :   128
 total energy-change (2. order) :-0.2122643E-06  (-0.1066880E-09)
 number of electron       2.0000001 magnetization 
 augmentation part        0.0407056 magnetization 

 Broyden mixing:
  rms(total) = 0.10200E-05    rms(broyden)= 0.98520E-06
  rms(prec ) = 0.12807E-05
  weight for this iteration     100.00

 eigenvalues of (default mixing * dielectric matrix)
  average eigenvalue GAMMA=   2.9706
  8.8626  5.8821  3.9782  3.7358  2.7471  2.4626  2.1260  1.6704  1.1761  1.0199
  0.9827  1.0036

 Free energy of the ion-electron system (eV)
  ---------------------------------------------------
  alpha Z        PSCENC =         0.00121808
  Ewald energy   TEWEN  =        14.68390371
  -Hartree energ DENC   =       -31.22674574
  -exchange      EXHF   =         0.00000000
  -V(xc)+E(xc)   XCENC  =         5.14875134
  PAW double counting   =        23.07527890      -23.12574346
  entropy T*S    EENTRO =        -0.00000000
  eigenvalues    EBANDS =       -20.59554849
  atomic energy  EATOM  =        25.06705842
  Solvation  Ediel_sol  =         0.00000000
  ---------------------------------------------------
  free energy    TOTEN  =        -6.97182725 eV

  energy without entropy =       -6.97182725  energy(sigma->0) =       -6.97182725


--------------------------------------------------------------------------------------------------------




--------------------------------------- Iteration      3(  14)  ---------------------------------------


    POTLOK:  cpu time      0.0660: real time      0.0666
    SETDIJ:  cpu time      0.0878: real time      0.0885
     EDDAV:  cpu time      0.1630: real time      0.1650
       DOS:  cpu time      0.0003: real time      0.0009
    --------------------------------------------
      LOOP:  cpu time      0.3171: real time      0.3210

 eigenvalue-minimisations  :    64
 total energy-change (2. order) :-0.7571821E-07  (-0.6593837E-11)
 number of electron       2.0000001 magnetization 
 augmentation part        0.0407056 magnetization 

 Free energy of the ion-electron system (eV)
  ---------------------------------------------------
  alpha Z        PSCENC =         0.00121808
  Ewald energy   TEWEN  =        14.68390371
  -Hartree energ DENC   =       -31.22673266
  -exchange      EXHF   =         0.00000000
  -V(xc)+E(xc)   XCENC  =         5.14874999
  PAW double counting   =        23.07528485      -23.12574936
  entropy T*S    EENTRO =        -0.00000000
  eigenvalues    EBANDS =       -20.59556036
  atomic energy  EATOM  =        25.06705842
  Solvation  Ediel_sol  =         0.00000000
  ---------------------------------------------------
  free energy    TOTEN  =        -6.97182732 eV

  energy without entropy =       -6.97182732  energy(sigma->0) =       -6.97182732


--------------------------------------------------------------------------------------------------------




 average (electrostatic) potential at core
  the test charge radii are     0.5201
  (the norm of the test charge is              1.0000)
       1 -41.6862       2 -41.6854



 E-fermi : -10.2282     XC(G=0):  -0.0660     alpha+bet : -0.0069

 val. band max:      -10.2977801792   @ k =   0.0000   0.0000   0.0000
 cond. band min:      -0.0597534420   @ k =   0.0000   0.0000   0.0000
 fundamental gap:     10.2380267372
 Fermi energy:       -10.2282166389

 k-point     1 :       0.0000    0.0000    0.0000
  band No.  band energies     occupation 
      1     -10.2978      2.00000
      2      -0.0598      0.00000
      3       0.0679      0.00000
      4       0.2341      0.00000
      5       0.3084      0.00000
      6       0.3085      0.00000
      7       0.3561      0.00000
      8       0.3593      0.00000
      9       0.4338      0.00000
     10       0.5986      0.00000
     11       0.5986      0.00000
     12       0.6318      0.00000
     13       0.7267      0.00000
     14       0.7286      0.00000
     15       0.7294      0.00000
     16       0.7294      0.00000
     17       0.7298      0.00000
     18       0.7390      0.00000
     19       0.7394      0.00000
     20       0.7422      0.00000
     21       0.8609      0.00000
     22       1.0044      0.00000
     23       1.0046      0.00000
     24       1.0673      0.00000
     25       1.1030      0.00000
     26       1.1031      0.00000
     27       1.1031      0.00000
     28       1.1099      0.00000
     29       1.1991      0.00000
     30       1.3402      0.00000
     31       1.3404      0.00000
     32       1.4594      0.00000


--------------------------------------------------------------------------------------------------------


 soft charge-density along one line, spin component           1
         0         1         2         3         4         5         6         7         8         9
 total charge-density along one line

 pseudopotential strength for first ion, spin component:           1
 -2.344  -4.039   0.000   0.000  -0.008
 -4.039  -6.874   0.000   0.000  -0.017
  0.000   0.000  -0.344  -0.000  -0.000
  0.000   0.000  -0.000  -0.344  -0.000
 -0.008  -0.017  -0.000  -0.000  -0.324
 total augmentation occupancy for first ion, spin component:           1
  3.070  -0.483   0.000   0.000   0.357
 -0.483   0.076  -0.000  -0.000  -0.056
  0.000  -0.000   0.000   0.000   0.000
  0.000  -0.000   0.000   0.000   0.000
  0.357  -0.056   0.000   0.000   0.041


------------------------ aborting loop because EDIFF is reached ----------------------------------------


    CHARGE:  cpu time      0.0533: real time      0.0547
    FORLOC:  cpu time      0.0013: real time      0.0013
    FORNL :  cpu time      0.2428: real time      0.2456
    STRESS:  cpu time      0.8431: real time      0.8534
    FORHAR:  cpu time      0.0155: real time      0.0156
    MIXING:  cpu time      0.0027: real time      0.0028
    OFIELD:  cpu time      0.0000: real time      0.0000

 ---------------------------------------------------------------------------------------------

         DFTD3 V3.0 Rev 1        
 Edisp (eV)   -0.00001

 E6    (eV) :    -0.0000
 E8    (eV) :    -0.0000
 % E8        :  4.67
    FORVDW:  cpu time      0.0076: real time      0.0077

  FORCE on cell =-STRESS in cart. coord.  units (eV):
  Direction    XX          YY          ZZ          XY          YZ          ZX
  --------------------------------------------------------------------------------------
  Alpha Z     0.00122     0.00122     0.00122
  Ewald      17.40994    -1.36302    -1.36302     0.00000     0.00000     0.00000
  Hartree    11.94893     9.63890     9.63890     0.00000    -0.00000     0.00000
  E(xc)      -5.78215    -6.08298    -6.08298     0.00000     0.00000     0.00000
  Local     -31.75169   -18.04349   -18.04349    -0.00000     0.00000    -0.00000
  n-local    -6.23192    -5.33026    -5.33026    -0.00000    -0.00000    -0.00000
  augment     0.20286     0.26456     0.26457    -0.00000     0.00000     0.00000
  Kinetic    13.55155    20.79691    20.79691    -0.00000    -0.00000    -0.00000
  Fock        0.00000     0.00000     0.00000     0.00000     0.00000     0.00000
  vdW         0.00004    -0.00000    -0.00000     0.00000     0.00000     0.00000
  -------------------------------------------------------------------------------------
  Total      -0.65122    -0.11815    -0.11815    -0.00000     0.00000     0.00000
  in kB      -0.13042    -0.02366    -0.02366    -0.00000     0.00000     0.00000
  external pressure =       -0.06 kB  Pullay stress =        0.00 kB


 VOLUME and BASIS-vectors are now :
 -----------------------------------------------------------------------------
  energy-cutoff  :      400.00
  volume of cell :     8000.00
      direct lattice vectors                 reciprocal lattice vectors
    20.000000000  0.000000000  0.000000000     0.050000000  0.000000000  0.000000000
     0.000000000 20.000000000  0.000000000     0.000000000  0.050000000  0.000000000
     0.000000000  0.000000000 20.000000000     0.000000000  0.000000000  0.050000000

  length of vectors
    20.000000000 20.000000000 20.000000000     0.050000000  0.050000000  0.050000000


 FORCES acting on ions
    electron-ion (+dipol)            ewald-force                    non-local-force                 convergence-correction
 -----------------------------------------------------------------------------------------------
   0.203E+02 0.434E-08 0.105E-06   -.245E+02 -.471E-08 -.926E-07   0.483E+01 0.108E-07 0.451E-06   0.302E-06 -.347E-11 0.776E-10
   -.203E+02 -.398E-08 0.317E-07   0.245E+02 0.471E-08 0.926E-07   -.483E+01 -.466E-07 -.684E-06   0.210E-05 -.353E-11 0.210E-11
 -----------------------------------------------------------------------------------------------
   0.797E-04 0.364E-09 0.137E-06   0.000E+00 -.168E-18 0.314E-18   0.651E-04 -.358E-07 -.232E-06   0.241E-05 -.701E-11 0.797E-10


 POSITION                                       TOTAL-FORCE (eV/Angst)
 -----------------------------------------------------------------------------------
      9.60636     10.00000     10.00000         0.647272      0.000000      0.000001
     10.37364     10.00000     10.00000        -0.647272     -0.000000     -0.000001
 -----------------------------------------------------------------------------------
    total drift:                                0.000147     -0.000000     -0.000000


--------------------------------------------------------------------------------------------------------



  FREE ENERGIE OF THE ION-ELECTRON SYSTEM (eV)
  ---------------------------------------------------
  free  energy   TOTEN  =        -6.97183276 eV

  energy  without entropy=       -6.97183276  energy(sigma->0) =       -6.97183276

 d Force = 0.1745540E-02[-0.259E-01, 0.294E-01]  d Energy = 0.5411686E-03 0.120E-02
 d Force = 0.1033447E+01[ 0.978E+00, 0.109E+01]  d Ewald  = 0.1031967E+01 0.148E-02


--------------------------------------------------------------------------------------------------------


    POTLOK:  cpu time      0.1519: real time      0.1532


--------------------------------------------------------------------------------------------------------


 Finite differences progress:
  Degree of freedom:   1/  6
  Displacement:        2/  2
  Total:               2/ 12
    WAVPRE:  cpu time      0.0047: real time      0.0054
    FEWALD:  cpu time      0.0003: real time      0.0005
    ORTHCH:  cpu time      0.0128: real time      0.0130
     LOOP+:  cpu time      7.8381: real time      7.9364


--------------------------------------- Ionic step        4  -------------------------------------------




--------------------------------------- Iteration      4(   1)  ---------------------------------------


    POTLOK:  cpu time      0.0629: real time      0.0642
    SETDIJ:  cpu time      0.0881: real time      0.0887
     EDDAV:  cpu time      0.1606: real time      0.1624
       DOS:  cpu time      0.0006: real time      0.0006
    CHARGE:  cpu time      0.0543: real time      0.0554
    MIXING:  cpu time      0.0017: real time      0.0017
    --------------------------------------------
      LOOP:  cpu time      0.3681: real time      0.3731

 eigenvalue-minimisations  :    64
 total energy-change (2. order) :-0.7282268E-02  (-0.3128486E-01)
 number of electron       2.0000000 magnetization 
 augmentation part        0.0418391 magnetization 

 Broyden mixing:
  rms(total) = 0.20952E-01    rms(broyden)= 0.20923E-01
  rms(prec ) = 0.22108E-01
  weight for this iteration     100.00

 Free energy of the ion-electron system (eV)
  ---------------------------------------------------
  alpha Z        PSCENC =         0.00121808
  Ewald energy   TEWEN  =        15.17917677
  -Hartree energ DENC   =       -31.39217025
  -exchange      EXHF   =         0.00000000
  -V(xc)+E(xc)   XCENC  =         5.16914992
  PAW double counting   =        23.07534537      -23.12580997
  entropy T*S    EENTRO =        -0.00000000
  eigenvalues    EBANDS =       -20.95307785
  atomic energy  EATOM  =        25.06705842
  Solvation  Ediel_sol  =         0.00000000
  ---------------------------------------------------
  free energy    TOTEN  =        -6.97910952 eV

  energy without entropy =       -6.97910952  energy(sigma->0) =       -6.97910952


--------------------------------------------------------------------------------------------------------




--------------------------------------- Iteration      4(   2)  ---------------------------------------


    POTLOK:  cpu time      0.0676: real time      0.0684
    SETDIJ:  cpu time      0.0881: real time      0.0888
     EDDAV:  cpu time      0.2288: real time      0.2313
       DOS:  cpu time      0.0005: real time      0.0005
    CHARGE:  cpu time      0.0548: real time      0.0559
    MIXING:  cpu time      0.0019: real time      0.0019
    --------------------------------------------
      LOOP:  cpu time      0.4417: real time      0.4468

 eigenvalue-minimisations  :    96
 total energy-change (2. order) : 0.5304078E-03  (-0.1586937E-03)
 number of electron       2.0000000 magnetization 
 augmentation part        0.0418178 magnetization 

 Broyden mixing:
  rms(total) = 0.12407E-01    rms(broyden)= 0.12404E-01
  rms(prec ) = 0.13063E-01
  weight for this iteration     100.00

 eigenvalues of (default mixing * dielectric matrix)
  average eigenvalue GAMMA=   2.3934
  2.3934

 Free energy of the ion-electron system (eV)
  ---------------------------------------------------
  alpha Z        PSCENC =         0.00121808
  Ewald energy   TEWEN  =        15.17917677
  -Hartree energ DENC   =       -31.47577090
  -exchange      EXHF   =         0.00000000
  -V(xc)+E(xc)   XCENC  =         5.18050725
  PAW double counting   =        23.65293608      -23.70463222
  entropy T*S    EENTRO =        -0.00000000
  eigenvalues    EBANDS =       -20.87907260
  atomic energy  EATOM  =        25.06705842
  Solvation  Ediel_sol  =         0.00000000
  ---------------------------------------------------
  free energy    TOTEN  =        -6.97857911 eV

  energy without entropy =       -6.97857911  energy(sigma->0) =       -6.97857911


--------------------------------------------------------------------------------------------------------




--------------------------------------- Iteration      4(   3)  ---------------------------------------


    POTLOK:  cpu time      0.0640: real time      0.0647
    SETDIJ:  cpu time      0.0887: real time      0.0894
     EDDAV:  cpu time      0.3033: real time      0.3066
       DOS:  cpu time      0.0010: real time      0.0010
    CHARGE:  cpu time      0.0544: real time      0.0558
    MIXING:  cpu time      0.0020: real time      0.0020
    --------------------------------------------
      LOOP:  cpu time      0.5135: real time      0.5195

 eigenvalue-minimisations  :   128
 total energy-change (2. order) : 0.1553345E-03  (-0.1143974E-03)
 number of electron       2.0000000 magnetization 
 augmentation part        0.0417235 magnetization 

 Broyden mixing:
  rms(total) = 0.18995E-02    rms(broyden)= 0.18979E-02
  rms(prec ) = 0.20420E-02
  weight for this iteration     100.00

 eigenvalues of (default mixing * dielectric matrix)
  average eigenvalue GAMMA=   1.5112
  0.7819  2.2405

 Free energy of the ion-electron system (eV)
  ---------------------------------------------------
  alpha Z        PSCENC =         0.00121808
  Ewald energy   TEWEN  =        15.17917677
  -Hartree energ DENC   =       -31.59214780
  -exchange      EXHF   =         0.00000000
  -V(xc)+E(xc)   XCENC  =         5.19619575
  PAW double counting   =        24.45629307      -24.50974125
  entropy T*S    EENTRO =        -0.00000000
  eigenvalues    EBANDS =       -20.77647682
  atomic energy  EATOM  =        25.06705842
  Solvation  Ediel_sol  =         0.00000000
  ---------------------------------------------------
  free energy    TOTEN  =        -6.97842377 eV

  energy without entropy =       -6.97842377  energy(sigma->0) =       -6.97842377


--------------------------------------------------------------------------------------------------------




--------------------------------------- Iteration      4(   4)  ---------------------------------------


    POTLOK:  cpu time      0.0656: real time      0.0670
    SETDIJ:  cpu time      0.0883: real time      0.0891
     EDDAV:  cpu time      0.1649: real time      0.1670
       DOS:  cpu time      0.0005: real time      0.0005
    CHARGE:  cpu time      0.0541: real time      0.0552
    MIXING:  cpu time      0.0020: real time      0.0021
    --------------------------------------------
      LOOP:  cpu time      0.3755: real time      0.3809

 eigenvalue-minimisations  :    64
 total energy-change (2. order) : 0.1521955E-05  (-0.1274060E-05)
 number of electron       2.0000000 magnetization 
 augmentation part        0.0417308 magnetization 

 Broyden mixing:
  rms(total) = 0.88189E-03    rms(broyden)= 0.88185E-03
  rms(prec ) = 0.95310E-03
  weight for this iteration     100.00

 eigenvalues of (default mixing * dielectric matrix)
  average eigenvalue GAMMA=   1.8311
  0.9881  2.4717  2.0336

 Free energy of the ion-electron system (eV)
  ---------------------------------------------------
  alpha Z        PSCENC =         0.00121808
  Ewald energy   TEWEN  =        15.17917677
  -Hartree energ DENC   =       -31.58327449
  -exchange      EXHF   =         0.00000000
  -V(xc)+E(xc)   XCENC  =         5.19488257
  PAW double counting   =        24.41376247      -24.46709567
  entropy T*S    EENTRO =        -0.00000000
  eigenvalues    EBANDS =       -20.78415041
  atomic energy  EATOM  =        25.06705842
  Solvation  Ediel_sol  =         0.00000000
  ---------------------------------------------------
  free energy    TOTEN  =        -6.97842225 eV

  energy without entropy =       -6.97842225  energy(sigma->0) =       -6.97842225


--------------------------------------------------------------------------------------------------------




--------------------------------------- Iteration      4(   5)  ---------------------------------------


    POTLOK:  cpu time      0.0643: real time      0.0653
    SETDIJ:  cpu time      0.0875: real time      0.0882
     EDDAV:  cpu time      0.3030: real time      0.3063
       DOS:  cpu time      0.0006: real time      0.0006
    CHARGE:  cpu time      0.0533: real time      0.0544
    MIXING:  cpu time      0.0020: real time      0.0020
    --------------------------------------------
      LOOP:  cpu time      0.5108: real time      0.5169

 eigenvalue-minimisations  :   128
 total energy-change (2. order) :-0.8862156E-05  (-0.9730608E-06)
 number of electron       2.0000000 magnetization 
 augmentation part        0.0417329 magnetization 

 Broyden mixing:
  rms(total) = 0.17387E-03    rms(broyden)= 0.17350E-03
  rms(prec ) = 0.20253E-03
  weight for this iteration     100.00

 eigenvalues of (default mixing * dielectric matrix)
  average eigenvalue GAMMA=   1.7745
  2.2679  2.2679  1.0483  1.5138

 Free energy of the ion-electron system (eV)
  ---------------------------------------------------
  alpha Z        PSCENC =         0.00121808
  Ewald energy   TEWEN  =        15.17917677
  -Hartree energ DENC   =       -31.58217842
  -exchange      EXHF   =         0.00000000
  -V(xc)+E(xc)   XCENC  =         5.19447682
  PAW double counting   =        24.43902351      -24.49236701
  entropy T*S    EENTRO =        -0.00000000
  eigenvalues    EBANDS =       -20.78483930
  atomic energy  EATOM  =        25.06705842
  Solvation  Ediel_sol  =         0.00000000
  ---------------------------------------------------
  free energy    TOTEN  =        -6.97843111 eV

  energy without entropy =       -6.97843111  energy(sigma->0) =       -6.97843111


--------------------------------------------------------------------------------------------------------




--------------------------------------- Iteration      4(   6)  ---------------------------------------


    POTLOK:  cpu time      0.0631: real time      0.0652
    SETDIJ:  cpu time      0.0879: real time      0.0887
     EDDAV:  cpu time      0.3028: real time      0.3060
       DOS:  cpu time      0.0005: real time      0.0005
    CHARGE:  cpu time      0.0538: real time      0.0549
    MIXING:  cpu time      0.0022: real time      0.0022
    --------------------------------------------
      LOOP:  cpu time      0.5103: real time      0.5175

 eigenvalue-minimisations  :   128
 total energy-change (2. order) :-0.5292027E-05  (-0.2826605E-07)
 number of electron       2.0000000 magnetization 
 augmentation part        0.0417332 magnetization 

 Broyden mixing:
  rms(total) = 0.60643E-04    rms(broyden)= 0.60621E-04
  rms(prec ) = 0.89208E-04
  weight for this iteration     100.00

 eigenvalues of (default mixing * dielectric matrix)
  average eigenvalue GAMMA=   1.7702
  0.9560  1.0371  2.7665  2.2743  1.8170

 Free energy of the ion-electron system (eV)
  ---------------------------------------------------
  alpha Z        PSCENC =         0.00121808
  Ewald energy   TEWEN  =        15.17917677
  -Hartree energ DENC   =       -31.58263437
  -exchange      EXHF   =         0.00000000
  -V(xc)+E(xc)   XCENC  =         5.19447337
  PAW double counting   =        24.43731418      -24.49065208
  entropy T*S    EENTRO =        -0.00000000
  eigenvalues    EBANDS =       -20.78439078
  atomic energy  EATOM  =        25.06705842
  Solvation  Ediel_sol  =         0.00000000
  ---------------------------------------------------
  free energy    TOTEN  =        -6.97843641 eV

  energy without entropy =       -6.97843641  energy(sigma->0) =       -6.97843641


--------------------------------------------------------------------------------------------------------




--------------------------------------- Iteration      4(   7)  ---------------------------------------


    POTLOK:  cpu time      0.0631: real time      0.0642
    SETDIJ:  cpu time      0.0882: real time      0.0888
     EDDAV:  cpu time      0.3023: real time      0.3056
       DOS:  cpu time      0.0005: real time      0.0005
    CHARGE:  cpu time      0.0533: real time      0.0544
    MIXING:  cpu time      0.0025: real time      0.0025
    --------------------------------------------
      LOOP:  cpu time      0.5098: real time      0.5159

 eigenvalue-minimisations  :   128
 total energy-change (2. order) :-0.3931482E-05  (-0.1378969E-07)
 number of electron       2.0000000 magnetization 
 augmentation part        0.0417330 magnetization 

 Broyden mixing:
  rms(total) = 0.27029E-04    rms(broyden)= 0.27025E-04
  rms(prec ) = 0.50996E-04
  weight for this iteration     100.00

 eigenvalues of (default mixing * dielectric matrix)
  average eigenvalue GAMMA=   2.0221
  3.7604  2.5326  0.9861  1.0531  2.0837  1.7170

 Free energy of the ion-electron system (eV)
  ---------------------------------------------------
  alpha Z        PSCENC =         0.00121808
  Ewald energy   TEWEN  =        15.17917677
  -Hartree energ DENC   =       -31.58349578
  -exchange      EXHF   =         0.00000000
  -V(xc)+E(xc)   XCENC  =         5.19453616
  PAW double counting   =        24.43934261      -24.49268330
  entropy T*S    EENTRO =        -0.00000000
  eigenvalues    EBANDS =       -20.78359330
  atomic energy  EATOM  =        25.06705842
  Solvation  Ediel_sol  =         0.00000000
  ---------------------------------------------------
  free energy    TOTEN  =        -6.97844034 eV

  energy without entropy =       -6.97844034  energy(sigma->0) =       -6.97844034


--------------------------------------------------------------------------------------------------------




--------------------------------------- Iteration      4(   8)  ---------------------------------------


    POTLOK:  cpu time      0.0640: real time      0.0651
    SETDIJ:  cpu time      0.0879: real time      0.0887
     EDDAV:  cpu time      0.3039: real time      0.3072
       DOS:  cpu time      0.0003: real time      0.0003
    CHARGE:  cpu time      0.0541: real time      0.0551
    MIXING:  cpu time      0.0026: real time      0.0026
    --------------------------------------------
      LOOP:  cpu time      0.5129: real time      0.5191

 eigenvalue-minimisations  :   128
 total energy-change (2. order) :-0.6100342E-05  (-0.3287532E-07)
 number of electron       2.0000000 magnetization 
 augmentation part        0.0417325 magnetization 

 Broyden mixing:
  rms(total) = 0.13877E-04    rms(broyden)= 0.13865E-04
  rms(prec ) = 0.23091E-04
  weight for this iteration     100.00

 eigenvalues of (default mixing * dielectric matrix)
  average eigenvalue GAMMA=   2.1659
  4.4494  1.0012  1.0389  2.7483  2.2891  1.7337  1.9008

 Free energy of the ion-electron system (eV)
  ---------------------------------------------------
  alpha Z        PSCENC =         0.00121808
  Ewald energy   TEWEN  =        15.17917677
  -Hartree energ DENC   =       -31.58474777
  -exchange      EXHF   =         0.00000000
  -V(xc)+E(xc)   XCENC  =         5.19463977
  PAW double counting   =        24.43873947      -24.49208000
  entropy T*S    EENTRO =        -0.00000000
  eigenvalues    EBANDS =       -20.78245117
  atomic energy  EATOM  =        25.06705842
  Solvation  Ediel_sol  =         0.00000000
  ---------------------------------------------------
  free energy    TOTEN  =        -6.97844644 eV

  energy without entropy =       -6.97844644  energy(sigma->0) =       -6.97844644


--------------------------------------------------------------------------------------------------------




--------------------------------------- Iteration      4(   9)  ---------------------------------------


    POTLOK:  cpu time      0.0647: real time      0.0658
    SETDIJ:  cpu time      0.0884: real time      0.0890
     EDDAV:  cpu time      0.1627: real time      0.1646
       DOS:  cpu time      0.0004: real time      0.0004
    CHARGE:  cpu time      0.0534: real time      0.0545
    MIXING:  cpu time      0.0027: real time      0.0027
    --------------------------------------------
      LOOP:  cpu time      0.3723: real time      0.3770

 eigenvalue-minimisations  :    64
 total energy-change (2. order) :-0.2991554E-05  (-0.7794938E-08)
 number of electron       2.0000000 magnetization 
 augmentation part        0.0417324 magnetization 

 Broyden mixing:
  rms(total) = 0.57179E-05    rms(broyden)= 0.57026E-05
  rms(prec ) = 0.11079E-04
  weight for this iteration     100.00

 eigenvalues of (default mixing * dielectric matrix)
  average eigenvalue GAMMA=   2.2565
  5.4798  3.1697  2.5079  2.1200  1.7552  1.0538  0.9827  0.9827

 Free energy of the ion-electron system (eV)
  ---------------------------------------------------
  alpha Z        PSCENC =         0.00121808
  Ewald energy   TEWEN  =        15.17917677
  -Hartree energ DENC   =       -31.58494268
  -exchange      EXHF   =         0.00000000
  -V(xc)+E(xc)   XCENC  =         5.19464355
  PAW double counting   =        24.43852092      -24.49186088
  entropy T*S    EENTRO =        -0.00000000
  eigenvalues    EBANDS =       -20.78226361
  atomic energy  EATOM  =        25.06705842
  Solvation  Ediel_sol  =         0.00000000
  ---------------------------------------------------
  free energy    TOTEN  =        -6.97844943 eV

  energy without entropy =       -6.97844943  energy(sigma->0) =       -6.97844943


--------------------------------------------------------------------------------------------------------




--------------------------------------- Iteration      4(  10)  ---------------------------------------


    POTLOK:  cpu time      0.0652: real time      0.0662
    SETDIJ:  cpu time      0.0879: real time      0.0885
     EDDAV:  cpu time      0.1646: real time      0.1670
       DOS:  cpu time      0.0004: real time      0.0004
    CHARGE:  cpu time      0.0538: real time      0.0548
    MIXING:  cpu time      0.0023: real time      0.0023
    --------------------------------------------
      LOOP:  cpu time      0.3741: real time      0.3792

 eigenvalue-minimisations  :    64
 total energy-change (2. order) :-0.1091964E-05  (-0.1650605E-08)
 number of electron       2.0000000 magnetization 
 augmentation part        0.0417324 magnetization 

 Broyden mixing:
  rms(total) = 0.49422E-05    rms(broyden)= 0.49260E-05
  rms(prec ) = 0.74049E-05
  weight for this iteration     100.00

 eigenvalues of (default mixing * dielectric matrix)
  average eigenvalue GAMMA=   2.5257
  6.6934  3.9485  2.8373  2.4606  1.9994  1.7625  1.0404  0.9998  0.9894

 Free energy of the ion-electron system (eV)
  ---------------------------------------------------
  alpha Z        PSCENC =         0.00121808
  Ewald energy   TEWEN  =        15.17917677
  -Hartree energ DENC   =       -31.58494462
  -exchange      EXHF   =         0.00000000
  -V(xc)+E(xc)   XCENC  =         5.19463352
  PAW double counting   =        24.43847352      -24.49181314
  entropy T*S    EENTRO =        -0.00000000
  eigenvalues    EBANDS =       -20.78225306
  atomic energy  EATOM  =        25.06705842
  Solvation  Ediel_sol  =         0.00000000
  ---------------------------------------------------
  free energy    TOTEN  =        -6.97845052 eV

  energy without entropy =       -6.97845052  energy(sigma->0) =       -6.97845052


--------------------------------------------------------------------------------------------------------




--------------------------------------- Iteration      4(  11)  ---------------------------------------


    POTLOK:  cpu time      0.0655: real time      0.0668
    SETDIJ:  cpu time      0.0887: real time      0.0894
     EDDAV:  cpu time      0.3016: real time      0.3049
       DOS:  cpu time      0.0003: real time      0.0004
    CHARGE:  cpu time      0.1074: real time      0.1089
    MIXING:  cpu time      0.0026: real time      0.0026
    --------------------------------------------
      LOOP:  cpu time      0.5662: real time      0.5730

 eigenvalue-minimisations  :   128
 total energy-change (2. order) :-0.9649392E-06  (-0.1572204E-08)
 number of electron       2.0000000 magnetization 
 augmentation part        0.0417324 magnetization 

 Broyden mixing:
  rms(total) = 0.21301E-05    rms(broyden)= 0.20926E-05
  rms(prec ) = 0.30507E-05
  weight for this iteration     100.00

 eigenvalues of (default mixing * dielectric matrix)
  average eigenvalue GAMMA=   2.5774
  7.4356  4.4663  2.9306  2.4253  2.2664  1.7758  0.9915  1.0292  1.0292  1.4240

 Free energy of the ion-electron system (eV)
  ---------------------------------------------------
  alpha Z        PSCENC =         0.00121808
  Ewald energy   TEWEN  =        15.17917677
  -Hartree energ DENC   =       -31.58493638
  -exchange      EXHF   =         0.00000000
  -V(xc)+E(xc)   XCENC  =         5.19462609
  PAW double counting   =        24.43845375      -24.49179346
  entropy T*S    EENTRO =        -0.00000000
  eigenvalues    EBANDS =       -20.78225476
  atomic energy  EATOM  =        25.06705842
  Solvation  Ediel_sol  =         0.00000000
  ---------------------------------------------------
  free energy    TOTEN  =        -6.97845149 eV

  energy without entropy =       -6.97845149  energy(sigma->0) =       -6.97845149


--------------------------------------------------------------------------------------------------------




--------------------------------------- Iteration      4(  12)  ---------------------------------------


    POTLOK:  cpu time      0.0901: real time      0.0914
    SETDIJ:  cpu time      0.0881: real time      0.0888
     EDDAV:  cpu time      0.3040: real time      0.3073
       DOS:  cpu time      0.0007: real time      0.0007
    CHARGE:  cpu time      0.0539: real time      0.0551
    MIXING:  cpu time      0.0026: real time      0.0026
    --------------------------------------------
      LOOP:  cpu time      0.5395: real time      0.5458

 eigenvalue-minimisations  :   128
 total energy-change (2. order) :-0.2353616E-06  (-0.1793623E-09)
 number of electron       2.0000000 magnetization 
 augmentation part        0.0417324 magnetization 

 Broyden mixing:
  rms(total) = 0.25546E-05    rms(broyden)= 0.25232E-05
  rms(prec ) = 0.29036E-05
  weight for this iteration     100.00

 eigenvalues of (default mixing * dielectric matrix)
  average eigenvalue GAMMA=   2.7040
  8.0776  5.0179  3.4904  2.7120  2.4361  2.1436  1.7809  1.0011  1.0011  1.0415
  1.0415

 Free energy of the ion-electron system (eV)
  ---------------------------------------------------
  alpha Z        PSCENC =         0.00121808
  Ewald energy   TEWEN  =        15.17917677
  -Hartree energ DENC   =       -31.58498366
  -exchange      EXHF   =         0.00000000
  -V(xc)+E(xc)   XCENC  =         5.19463180
  PAW double counting   =        24.43858374      -24.49192388
  entropy T*S    EENTRO =        -0.00000000
  eigenvalues    EBANDS =       -20.78221300
  atomic energy  EATOM  =        25.06705842
  Solvation  Ediel_sol  =         0.00000000
  ---------------------------------------------------
  free energy    TOTEN  =        -6.97845172 eV

  energy without entropy =       -6.97845172  energy(sigma->0) =       -6.97845172


--------------------------------------------------------------------------------------------------------




--------------------------------------- Iteration      4(  13)  ---------------------------------------


    POTLOK:  cpu time      0.0650: real time      0.0661
    SETDIJ:  cpu time      0.0882: real time      0.0889
     EDDAV:  cpu time      0.3010: real time      0.3043
       DOS:  cpu time      0.0006: real time      0.0006
    CHARGE:  cpu time      0.0534: real time      0.0546
    MIXING:  cpu time      0.0029: real time      0.0029
    --------------------------------------------
      LOOP:  cpu time      0.5111: real time      0.5174

 eigenvalue-minimisations  :   128
 total energy-change (2. order) :-0.1299136E-06  (-0.8807888E-10)
 number of electron       2.0000000 magnetization 
 augmentation part        0.0417324 magnetization 

 Broyden mixing:
  rms(total) = 0.77688E-06    rms(broyden)= 0.66756E-06
  rms(prec ) = 0.87942E-06
  weight for this iteration     100.00
  WARNING: grid for Broyden might be to small

 eigenvalues of (default mixing * dielectric matrix)
  average eigenvalue GAMMA=   2.8391
  8.5568  5.6967  4.0020  3.1426  2.4296  2.1953  2.1953  1.7847  0.9916  0.9916
  1.0413  1.0413

 Free energy of the ion-electron system (eV)
  ---------------------------------------------------
  alpha Z        PSCENC =         0.00121808
  Ewald energy   TEWEN  =        15.17917677
  -Hartree energ DENC   =       -31.58496119
  -exchange      EXHF   =         0.00000000
  -V(xc)+E(xc)   XCENC  =         5.19462751
  PAW double counting   =        24.43845346      -24.49179319
  entropy T*S    EENTRO =        -0.00000000
  eigenvalues    EBANDS =       -20.78223172
  atomic energy  EATOM  =        25.06705842
  Solvation  Ediel_sol  =         0.00000000
  ---------------------------------------------------
  free energy    TOTEN  =        -6.97845185 eV

  energy without entropy =       -6.97845185  energy(sigma->0) =       -6.97845185


--------------------------------------------------------------------------------------------------------




--------------------------------------- Iteration      4(  14)  ---------------------------------------


    POTLOK:  cpu time      0.0637: real time      0.0651
    SETDIJ:  cpu time      0.0878: real time      0.0885
     EDDAV:  cpu time      0.1610: real time      0.1630
       DOS:  cpu time      0.0003: real time      0.0009
    --------------------------------------------
      LOOP:  cpu time      0.3127: real time      0.3176

 eigenvalue-minimisations  :    64
 total energy-change (2. order) :-0.4458627E-07  (-0.6149747E-11)
 number of electron       2.0000000 magnetization 
 augmentation part        0.0417324 magnetization 

 Free energy of the ion-electron system (eV)
  ---------------------------------------------------
  alpha Z        PSCENC =         0.00121808
  Ewald energy   TEWEN  =        15.17917677
  -Hartree energ DENC   =       -31.58497126
  -exchange      EXHF   =         0.00000000
  -V(xc)+E(xc)   XCENC  =         5.19462864
  PAW double counting   =        24.43848449      -24.49182430
  entropy T*S    EENTRO =        -0.00000000
  eigenvalues    EBANDS =       -20.78222274
  atomic energy  EATOM  =        25.06705842
  Solvation  Ediel_sol  =         0.00000000
  ---------------------------------------------------
  free energy    TOTEN  =        -6.97845190 eV

  energy without entropy =       -6.97845190  energy(sigma->0) =       -6.97845190


--------------------------------------------------------------------------------------------------------




 average (electrostatic) potential at core
  the test charge radii are     0.5201
  (the norm of the test charge is              1.0000)
       1 -41.7985       2 -41.7987



 E-fermi : -10.3210     XC(G=0):  -0.0647     alpha+bet : -0.0069

 val. band max:      -10.3911113716   @ k =   0.0000   0.0000   0.0000
 cond. band min:      -0.0577885312   @ k =   0.0000   0.0000   0.0000
 fundamental gap:     10.3333228404
 Fermi energy:       -10.3209855059

 k-point     1 :       0.0000    0.0000    0.0000
  band No.  band energies     occupation 
      1     -10.3911      2.00000
      2      -0.0578      0.00000
      3       0.1120      0.00000
      4       0.2359      0.00000
      5       0.3134      0.00000
      6       0.3137      0.00000
      7       0.3555      0.00000
      8       0.3558      0.00000
      9       0.4421      0.00000
     10       0.5997      0.00000
     11       0.6000      0.00000
     12       0.6334      0.00000
     13       0.7276      0.00000
     14       0.7283      0.00000
     15       0.7317      0.00000
     16       0.7332      0.00000
     17       0.7353      0.00000
     18       0.7358      0.00000
     19       0.7367      0.00000
     20       0.7378      0.00000
     21       0.8771      0.00000
     22       1.0064      0.00000
     23       1.0066      0.00000
     24       1.0721      0.00000
     25       1.1020      0.00000
     26       1.1026      0.00000
     27       1.1049      0.00000
     28       1.1167      0.00000
     29       1.2031      0.00000
     30       1.3436      0.00000
     31       1.3442      0.00000
     32       1.4611      0.00000


--------------------------------------------------------------------------------------------------------


 soft charge-density along one line, spin component           1
         0         1         2         3         4         5         6         7         8         9
 total charge-density along one line

 pseudopotential strength for first ion, spin component:           1
 -2.344  -4.040   0.000   0.000  -0.009
 -4.040  -6.877   0.001   0.000  -0.019
  0.000   0.001  -0.343  -0.000  -0.001
  0.000   0.000  -0.000  -0.343  -0.000
 -0.009  -0.019  -0.001  -0.000  -0.321
 total augmentation occupancy for first ion, spin component:           1
  3.114  -0.484  -0.010  -0.000   0.380
 -0.484   0.075   0.002   0.000  -0.059
 -0.010   0.002   0.000   0.000  -0.001
 -0.000   0.000   0.000   0.000  -0.000
  0.380  -0.059  -0.001  -0.000   0.046


------------------------ aborting loop because EDIFF is reached ----------------------------------------


    CHARGE:  cpu time      0.0542: real time      0.0549
    FORLOC:  cpu time      0.0010: real time      0.0010
    FORNL :  cpu time      0.3210: real time      0.3243
    STRESS:  cpu time      0.8431: real time      0.8535
    FORHAR:  cpu time      0.0156: real time      0.0157
    MIXING:  cpu time      0.0023: real time      0.0023
    OFIELD:  cpu time      0.0001: real time      0.0000

 ---------------------------------------------------------------------------------------------

         DFTD3 V3.0 Rev 1        
 Edisp (eV)   -0.00000

 E6    (eV) :    -0.0000
 E8    (eV) :    -0.0000
 % E8        :  4.58
    FORVDW:  cpu time      0.0078: real time      0.0079

  FORCE on cell =-STRESS in cart. coord.  units (eV):
  Direction    XX          YY          ZZ          XY          YZ          ZX
  --------------------------------------------------------------------------------------
  Alpha Z     0.00122     0.00122     0.00122
  Ewald      17.89132    -1.34917    -1.36296    -0.51500    -0.00000     0.00000
  Hartree    12.02915     9.77872     9.77711    -0.06010     0.00000     0.00000
  E(xc)      -5.83914    -6.13633    -6.13655    -0.00796     0.00000     0.00000
  Local     -31.90571   -18.29674   -18.28698     0.36400    -0.00000    -0.00000
  n-local    -6.41474    -5.44811    -5.44741     0.02589    -0.00000    -0.00000
  augment     0.20200     0.27229     0.27233     0.00189     0.00000     0.00000
  Kinetic    13.87232    21.05818    21.06333     0.19246    -0.00000    -0.00000
  Fock        0.00000     0.00000     0.00000     0.00000     0.00000     0.00000
  vdW         0.00003    -0.00000    -0.00000    -0.00000    -0.00000     0.00000
  -------------------------------------------------------------------------------------
  Total      -0.16355    -0.11996    -0.11991     0.00117     0.00000     0.00000
  in kB      -0.03275    -0.02402    -0.02401     0.00023     0.00000     0.00000
  external pressure =       -0.03 kB  Pullay stress =        0.00 kB


 VOLUME and BASIS-vectors are now :
 -----------------------------------------------------------------------------
  energy-cutoff  :      400.00
  volume of cell :     8000.00
      direct lattice vectors                 reciprocal lattice vectors
    20.000000000  0.000000000  0.000000000     0.050000000  0.000000000  0.000000000
     0.000000000 20.000000000  0.000000000     0.000000000  0.050000000  0.000000000
     0.000000000  0.000000000 20.000000000     0.000000000  0.000000000  0.050000000

  length of vectors
    20.000000000 20.000000000 20.000000000     0.050000000  0.050000000  0.050000000


 FORCES acting on ions
    electron-ion (+dipol)            ewald-force                    non-local-force                 convergence-correction
 -----------------------------------------------------------------------------------------------
   0.207E+02 -.553E+00 -.400E-07   -.258E+02 0.689E+00 -.100E-06   0.510E+01 -.137E+00 0.689E-06   -.688E-08 0.325E-06 0.728E-10
   -.207E+02 0.553E+00 -.232E-07   0.258E+02 -.689E+00 0.100E-06   -.510E+01 0.136E+00 -.501E-06   -.333E-06 0.218E-06 0.478E-10
 -----------------------------------------------------------------------------------------------
   0.225E-05 -.240E-03 -.632E-07   0.000E+00 0.000E+00 0.315E-18   -.642E-05 -.178E-03 0.188E-06   -.340E-06 0.543E-06 0.121E-09


 POSITION                                       TOTAL-FORCE (eV/Angst)
 -----------------------------------------------------------------------------------
      9.62636     10.02000     10.00000         0.010687     -0.000408      0.000000
     10.37364     10.00000     10.00000        -0.010687      0.000408     -0.000000
 -----------------------------------------------------------------------------------
    total drift:                               -0.000005     -0.000417      0.000000


--------------------------------------------------------------------------------------------------------



  FREE ENERGIE OF THE ION-ELECTRON SYSTEM (eV)
  ---------------------------------------------------
  free  energy   TOTEN  =        -6.97845633 eV

  energy  without entropy=       -6.97845633  energy(sigma->0) =       -6.97845633

 d Force = 0.6575515E-02[ 0.206E-03, 0.129E-01]  d Energy = 0.6623570E-02-0.481E-04
 d Force =-0.4951753E+00[-0.501E+00,-0.489E+00]  d Ewald  =-0.4952731E+00 0.977E-04


--------------------------------------------------------------------------------------------------------


    POTLOK:  cpu time      0.1526: real time      0.1538


--------------------------------------------------------------------------------------------------------


 Finite differences progress:
  Degree of freedom:   2/  6
  Displacement:        1/  2
  Total:               3/ 12
    WAVPRE:  cpu time      0.0046: real time      0.0053
    FEWALD:  cpu time      0.0003: real time      0.0004
    ORTHCH:  cpu time      0.0125: real time      0.0127
     LOOP+:  cpu time      7.9262: real time      8.0255


--------------------------------------- Ionic step        5  -------------------------------------------




--------------------------------------- Iteration      5(   1)  ---------------------------------------


    POTLOK:  cpu time      0.0634: real time      0.0648
    SETDIJ:  cpu time      0.0876: real time      0.0882
     EDDAV:  cpu time      0.1604: real time      0.1623
       DOS:  cpu time      0.0009: real time      0.0009
    CHARGE:  cpu time      0.0532: real time      0.0544
    MIXING:  cpu time      0.0026: real time      0.0026
    --------------------------------------------
      LOOP:  cpu time      0.3680: real time      0.3731

 eigenvalue-minimisations  :    64
 total energy-change (2. order) :-0.6251744E-04  (-0.5731767E-01)
 number of electron       2.0000000 magnetization 
 augmentation part        0.0416974 magnetization 

 Broyden mixing:
  rms(total) = 0.19925E-01    rms(broyden)= 0.19882E-01
  rms(prec ) = 0.20874E-01
  weight for this iteration     100.00

 Free energy of the ion-electron system (eV)
  ---------------------------------------------------
  alpha Z        PSCENC =         0.00121808
  Ewald energy   TEWEN  =        15.17917677
  -Hartree energ DENC   =       -31.58227459
  -exchange      EXHF   =         0.00000000
  -V(xc)+E(xc)   XCENC  =         5.19451674
  PAW double counting   =        24.43849253      -24.49183234
  entropy T*S    EENTRO =        -0.00000000
  eigenvalues    EBANDS =       -20.78486998
  atomic energy  EATOM  =        25.06705842
  Solvation  Ediel_sol  =         0.00000000
  ---------------------------------------------------
  free energy    TOTEN  =        -6.97851437 eV

  energy without entropy =       -6.97851437  energy(sigma->0) =       -6.97851437


--------------------------------------------------------------------------------------------------------




--------------------------------------- Iteration      5(   2)  ---------------------------------------


    POTLOK:  cpu time      0.0686: real time      0.0693
    SETDIJ:  cpu time      0.0878: real time      0.0885
     EDDAV:  cpu time      0.1610: real time      0.1629
       DOS:  cpu time      0.0005: real time      0.0005
    CHARGE:  cpu time      0.0545: real time      0.0556
    MIXING:  cpu time      0.0019: real time      0.0020
    --------------------------------------------
      LOOP:  cpu time      0.3744: real time      0.3787

 eigenvalue-minimisations  :    64
 total energy-change (2. order) : 0.1731209E-03  (-0.1750393E-03)
 number of electron       2.0000000 magnetization 
 augmentation part        0.0417319 magnetization 

 Broyden mixing:
  rms(total) = 0.11818E-01    rms(broyden)= 0.11812E-01
  rms(prec ) = 0.12363E-01
  weight for this iteration     100.00

 eigenvalues of (default mixing * dielectric matrix)
  average eigenvalue GAMMA=   2.4167
  2.4167

 Free energy of the ion-electron system (eV)
  ---------------------------------------------------
  alpha Z        PSCENC =         0.00121808
  Ewald energy   TEWEN  =        15.17917677
  -Hartree energ DENC   =       -31.58053836
  -exchange      EXHF   =         0.00000000
  -V(xc)+E(xc)   XCENC  =         5.19419740
  PAW double counting   =        24.44283306      -24.49614250
  entropy T*S    EENTRO =        -0.00000000
  eigenvalues    EBANDS =       -20.78614413
  atomic energy  EATOM  =        25.06705842
  Solvation  Ediel_sol  =         0.00000000
  ---------------------------------------------------
  free energy    TOTEN  =        -6.97834125 eV

  energy without entropy =       -6.97834125  energy(sigma->0) =       -6.97834125


--------------------------------------------------------------------------------------------------------




--------------------------------------- Iteration      5(   3)  ---------------------------------------


    POTLOK:  cpu time      0.0647: real time      0.0660
    SETDIJ:  cpu time      0.0884: real time      0.0891
     EDDAV:  cpu time      0.3033: real time      0.3067
       DOS:  cpu time      0.0007: real time      0.0007
    CHARGE:  cpu time      0.0536: real time      0.0546
    MIXING:  cpu time      0.0021: real time      0.0022
    --------------------------------------------
      LOOP:  cpu time      0.5127: real time      0.5192

 eigenvalue-minimisations  :   128
 total energy-change (2. order) :-0.7023476E-04  (-0.3730168E-04)
 number of electron       2.0000000 magnetization 
 augmentation part        0.0417322 magnetization 

 Broyden mixing:
  rms(total) = 0.54977E-03    rms(broyden)= 0.54568E-03
  rms(prec ) = 0.60151E-03
  weight for this iteration     100.00

 eigenvalues of (default mixing * dielectric matrix)
  average eigenvalue GAMMA=   1.7679
  1.0783  2.4575

 Free energy of the ion-electron system (eV)
  ---------------------------------------------------
  alpha Z        PSCENC =         0.00121808
  Ewald energy   TEWEN  =        15.17917677
  -Hartree energ DENC   =       -31.58541753
  -exchange      EXHF   =         0.00000000
  -V(xc)+E(xc)   XCENC  =         5.19472120
  PAW double counting   =        24.44435036      -24.49769007
  entropy T*S    EENTRO =        -0.00000000
  eigenvalues    EBANDS =       -20.78182872
  atomic energy  EATOM  =        25.06705842
  Solvation  Ediel_sol  =         0.00000000
  ---------------------------------------------------
  free energy    TOTEN  =        -6.97841148 eV

  energy without entropy =       -6.97841148  energy(sigma->0) =       -6.97841148


--------------------------------------------------------------------------------------------------------




--------------------------------------- Iteration      5(   4)  ---------------------------------------


    POTLOK:  cpu time      0.0664: real time      0.0676
    SETDIJ:  cpu time      0.0878: real time      0.0888
     EDDAV:  cpu time      0.1622: real time      0.1641
       DOS:  cpu time      0.0004: real time      0.0004
    CHARGE:  cpu time      0.0544: real time      0.0555
    MIXING:  cpu time      0.0026: real time      0.0027
    --------------------------------------------
      LOOP:  cpu time      0.3738: real time      0.3790

 eigenvalue-minimisations  :    64
 total energy-change (2. order) :-0.8030647E-05  (-0.8622904E-07)
 number of electron       2.0000000 magnetization 
 augmentation part        0.0417322 magnetization 

 Broyden mixing:
  rms(total) = 0.29596E-03    rms(broyden)= 0.29562E-03
  rms(prec ) = 0.34510E-03
  weight for this iteration     100.00

 eigenvalues of (default mixing * dielectric matrix)
  average eigenvalue GAMMA=   2.0890
  1.0014  2.4379  2.8276

 Free energy of the ion-electron system (eV)
  ---------------------------------------------------
  alpha Z        PSCENC =         0.00121808
  Ewald energy   TEWEN  =        15.17917677
  -Hartree energ DENC   =       -31.58536502
  -exchange      EXHF   =         0.00000000
  -V(xc)+E(xc)   XCENC  =         5.19470542
  PAW double counting   =        24.44191593      -24.49525597
  entropy T*S    EENTRO =        -0.00000000
  eigenvalues    EBANDS =       -20.78187315
  atomic energy  EATOM  =        25.06705842
  Solvation  Ediel_sol  =         0.00000000
  ---------------------------------------------------
  free energy    TOTEN  =        -6.97841951 eV

  energy without entropy =       -6.97841951  energy(sigma->0) =       -6.97841951


--------------------------------------------------------------------------------------------------------




--------------------------------------- Iteration      5(   5)  ---------------------------------------


    POTLOK:  cpu time      0.0666: real time      0.0679
    SETDIJ:  cpu time      0.0878: real time      0.0885
     EDDAV:  cpu time      0.2339: real time      0.2365
       DOS:  cpu time      0.0007: real time      0.0007
    CHARGE:  cpu time      0.0538: real time      0.0549
    MIXING:  cpu time      0.0030: real time      0.0030
    --------------------------------------------
      LOOP:  cpu time      0.4459: real time      0.4516

 eigenvalue-minimisations  :    96
 total energy-change (2. order) :-0.1386011E-04  (-0.2350212E-06)
 number of electron       2.0000000 magnetization 
 augmentation part        0.0417325 magnetization 

 Broyden mixing:
  rms(total) = 0.51469E-04    rms(broyden)= 0.51268E-04
  rms(prec ) = 0.80238E-04
  weight for this iteration     100.00

 eigenvalues of (default mixing * dielectric matrix)
  average eigenvalue GAMMA=   2.1563
  1.0017  3.0536  2.2849  2.2849

 Free energy of the ion-electron system (eV)
  ---------------------------------------------------
  alpha Z        PSCENC =         0.00121808
  Ewald energy   TEWEN  =        15.17917677
  -Hartree energ DENC   =       -31.58504305
  -exchange      EXHF   =         0.00000000
  -V(xc)+E(xc)   XCENC  =         5.19464790
  PAW double counting   =        24.43807569      -24.49141499
  entropy T*S    EENTRO =        -0.00000000
  eigenvalues    EBANDS =       -20.78215221
  atomic energy  EATOM  =        25.06705842
  Solvation  Ediel_sol  =         0.00000000
  ---------------------------------------------------
  free energy    TOTEN  =        -6.97843337 eV

  energy without entropy =       -6.97843337  energy(sigma->0) =       -6.97843337


--------------------------------------------------------------------------------------------------------




--------------------------------------- Iteration      5(   6)  ---------------------------------------


    POTLOK:  cpu time      0.0678: real time      0.0699
    SETDIJ:  cpu time      0.0885: real time      0.0893
     EDDAV:  cpu time      0.2274: real time      0.2303
       DOS:  cpu time      0.0005: real time      0.0005
    CHARGE:  cpu time      0.0620: real time      0.0631
    MIXING:  cpu time      0.0029: real time      0.0029
    --------------------------------------------
      LOOP:  cpu time      0.4491: real time      0.4559

 eigenvalue-minimisations  :    96
 total energy-change (2. order) :-0.8747749E-05  (-0.6410137E-07)
 number of electron       2.0000000 magnetization 
 augmentation part        0.0417324 magnetization 

 Broyden mixing:
  rms(total) = 0.24994E-04    rms(broyden)= 0.24975E-04
  rms(prec ) = 0.41792E-04
  weight for this iteration     100.00

 eigenvalues of (default mixing * dielectric matrix)
  average eigenvalue GAMMA=   2.0402
  3.3153  2.4631  2.4631  0.9798  0.9798

 Free energy of the ion-electron system (eV)
  ---------------------------------------------------
  alpha Z        PSCENC =         0.00121808
  Ewald energy   TEWEN  =        15.17917677
  -Hartree energ DENC   =       -31.58505522
  -exchange      EXHF   =         0.00000000
  -V(xc)+E(xc)   XCENC  =         5.19464545
  PAW double counting   =        24.43850311      -24.49184322
  entropy T*S    EENTRO =        -0.00000000
  eigenvalues    EBANDS =       -20.78214552
  atomic energy  EATOM  =        25.06705842
  Solvation  Ediel_sol  =         0.00000000
  ---------------------------------------------------
  free energy    TOTEN  =        -6.97844212 eV

  energy without entropy =       -6.97844212  energy(sigma->0) =       -6.97844212


--------------------------------------------------------------------------------------------------------




--------------------------------------- Iteration      5(   7)  ---------------------------------------


    POTLOK:  cpu time      0.0633: real time      0.0643
    SETDIJ:  cpu time      0.0882: real time      0.0888
     EDDAV:  cpu time      0.3028: real time      0.3062
       DOS:  cpu time      0.0004: real time      0.0004
    CHARGE:  cpu time      0.0545: real time      0.0555
    MIXING:  cpu time      0.0023: real time      0.0023
    --------------------------------------------
      LOOP:  cpu time      0.5113: real time      0.5175

 eigenvalue-minimisations  :   128
 total energy-change (2. order) :-0.3323365E-05  (-0.1213586E-07)
 number of electron       2.0000000 magnetization 
 augmentation part        0.0417324 magnetization 

 Broyden mixing:
  rms(total) = 0.14845E-04    rms(broyden)= 0.14838E-04
  rms(prec ) = 0.27387E-04
  weight for this iteration     100.00

 eigenvalues of (default mixing * dielectric matrix)
  average eigenvalue GAMMA=   2.3049
  4.4112  1.0007  0.9878  2.8838  2.4106  2.1351

 Free energy of the ion-electron system (eV)
  ---------------------------------------------------
  alpha Z        PSCENC =         0.00121808
  Ewald energy   TEWEN  =        15.17917677
  -Hartree energ DENC   =       -31.58502557
  -exchange      EXHF   =         0.00000000
  -V(xc)+E(xc)   XCENC  =         5.19463963
  PAW double counting   =        24.43855320      -24.49189328
  entropy T*S    EENTRO =        -0.00000000
  eigenvalues    EBANDS =       -20.78217270
  atomic energy  EATOM  =        25.06705842
  Solvation  Ediel_sol  =         0.00000000
  ---------------------------------------------------
  free energy    TOTEN  =        -6.97844544 eV

  energy without entropy =       -6.97844544  energy(sigma->0) =       -6.97844544


--------------------------------------------------------------------------------------------------------




--------------------------------------- Iteration      5(   8)  ---------------------------------------


    POTLOK:  cpu time      0.0645: real time      0.0657
    SETDIJ:  cpu time      0.0883: real time      0.0889
     EDDAV:  cpu time      0.1675: real time      0.1697
       DOS:  cpu time      0.0003: real time      0.0003
    CHARGE:  cpu time      0.0595: real time      0.0623
    MIXING:  cpu time      0.0022: real time      0.0022
    --------------------------------------------
      LOOP:  cpu time      0.3824: real time      0.3892

 eigenvalue-minimisations  :    64
 total energy-change (2. order) :-0.4097020E-05  (-0.2306617E-07)
 number of electron       2.0000000 magnetization 
 augmentation part        0.0417324 magnetization 

 Broyden mixing:
  rms(total) = 0.73055E-05    rms(broyden)= 0.72940E-05
  rms(prec ) = 0.13009E-04
  weight for this iteration     100.00

 eigenvalues of (default mixing * dielectric matrix)
  average eigenvalue GAMMA=   2.4124
  5.1278  3.0560  0.9995  1.0242  2.3556  2.3556  1.9678

 Free energy of the ion-electron system (eV)
  ---------------------------------------------------
  alpha Z        PSCENC =         0.00121808
  Ewald energy   TEWEN  =        15.17917677
  -Hartree energ DENC   =       -31.58497529
  -exchange      EXHF   =         0.00000000
  -V(xc)+E(xc)   XCENC  =         5.19463057
  PAW double counting   =        24.43851950      -24.49185927
  entropy T*S    EENTRO =        -0.00000000
  eigenvalues    EBANDS =       -20.78221833
  atomic energy  EATOM  =        25.06705842
  Solvation  Ediel_sol  =         0.00000000
  ---------------------------------------------------
  free energy    TOTEN  =        -6.97844954 eV

  energy without entropy =       -6.97844954  energy(sigma->0) =       -6.97844954


--------------------------------------------------------------------------------------------------------




--------------------------------------- Iteration      5(   9)  ---------------------------------------


    POTLOK:  cpu time      0.0639: real time      0.0653
    SETDIJ:  cpu time      0.0879: real time      0.0885
     EDDAV:  cpu time      0.2248: real time      0.2273
       DOS:  cpu time      0.0004: real time      0.0004
    CHARGE:  cpu time      0.0536: real time      0.0546
    MIXING:  cpu time      0.0025: real time      0.0025
    --------------------------------------------
      LOOP:  cpu time      0.4330: real time      0.4387

 eigenvalue-minimisations  :    96
 total energy-change (2. order) :-0.1447996E-05  (-0.2405471E-08)
 number of electron       2.0000000 magnetization 
 augmentation part        0.0417324 magnetization 

 Broyden mixing:
  rms(total) = 0.28250E-05    rms(broyden)= 0.27969E-05
  rms(prec ) = 0.59977E-05
  weight for this iteration     100.00

 eigenvalues of (default mixing * dielectric matrix)
  average eigenvalue GAMMA=   2.5218
  6.1656  3.5694  2.8357  2.4085  2.0094  1.0003  1.0367  1.1489

 Free energy of the ion-electron system (eV)
  ---------------------------------------------------
  alpha Z        PSCENC =         0.00121808
  Ewald energy   TEWEN  =        15.17917677
  -Hartree energ DENC   =       -31.58497384
  -exchange      EXHF   =         0.00000000
  -V(xc)+E(xc)   XCENC  =         5.19462951
  PAW double counting   =        24.43848847      -24.49182829
  entropy T*S    EENTRO =        -0.00000000
  eigenvalues    EBANDS =       -20.78222012
  atomic energy  EATOM  =        25.06705842
  Solvation  Ediel_sol  =         0.00000000
  ---------------------------------------------------
  free energy    TOTEN  =        -6.97845099 eV

  energy without entropy =       -6.97845099  energy(sigma->0) =       -6.97845099


--------------------------------------------------------------------------------------------------------




--------------------------------------- Iteration      5(  10)  ---------------------------------------


    POTLOK:  cpu time      0.0640: real time      0.0652
    SETDIJ:  cpu time      0.0881: real time      0.0888
     EDDAV:  cpu time      0.2262: real time      0.2288
       DOS:  cpu time      0.0004: real time      0.0004
    CHARGE:  cpu time      0.0539: real time      0.0549
    MIXING:  cpu time      0.0027: real time      0.0028
    --------------------------------------------
      LOOP:  cpu time      0.4354: real time      0.4409

 eigenvalue-minimisations  :    96
 total energy-change (2. order) :-0.4226147E-06  (-0.4948362E-09)
 number of electron       2.0000000 magnetization 
 augmentation part        0.0417324 magnetization 

 Broyden mixing:
  rms(total) = 0.23440E-05    rms(broyden)= 0.23101E-05
  rms(prec ) = 0.39291E-05
  weight for this iteration     100.00

 eigenvalues of (default mixing * dielectric matrix)
  average eigenvalue GAMMA=   2.7791
  7.4138  4.3804  2.9866  2.7194  2.4311  2.0260  1.0002  1.0124  1.0424

 Free energy of the ion-electron system (eV)
  ---------------------------------------------------
  alpha Z        PSCENC =         0.00121808
  Ewald energy   TEWEN  =        15.17917677
  -Hartree energ DENC   =       -31.58497226
  -exchange      EXHF   =         0.00000000
  -V(xc)+E(xc)   XCENC  =         5.19462896
  PAW double counting   =        24.43846723      -24.49180704
  entropy T*S    EENTRO =        -0.00000000
  eigenvalues    EBANDS =       -20.78222158
  atomic energy  EATOM  =        25.06705842
  Solvation  Ediel_sol  =         0.00000000
  ---------------------------------------------------
  free energy    TOTEN  =        -6.97845141 eV

  energy without entropy =       -6.97845141  energy(sigma->0) =       -6.97845141


--------------------------------------------------------------------------------------------------------




--------------------------------------- Iteration      5(  11)  ---------------------------------------


    POTLOK:  cpu time      0.0682: real time      0.0695
    SETDIJ:  cpu time      0.0875: real time      0.0882
     EDDAV:  cpu time      0.2275: real time      0.2299
       DOS:  cpu time      0.0003: real time      0.0003
    CHARGE:  cpu time      0.0538: real time      0.0549
    MIXING:  cpu time      0.0028: real time      0.0028
    --------------------------------------------
      LOOP:  cpu time      0.4401: real time      0.4456

 eigenvalue-minimisations  :    96
 total energy-change (2. order) :-0.3199873E-06  (-0.2664464E-09)
 number of electron       2.0000000 magnetization 
 augmentation part        0.0417324 magnetization 

 Broyden mixing:
  rms(total) = 0.11130E-05    rms(broyden)= 0.10396E-05
  rms(prec ) = 0.16479E-05
  weight for this iteration     100.00

 eigenvalues of (default mixing * dielectric matrix)
  average eigenvalue GAMMA=   2.7434
  7.7978  4.6015  3.2490  2.7199  2.4252  0.9933  1.0053  1.0383  1.8017  1.8017

 Free energy of the ion-electron system (eV)
  ---------------------------------------------------
  alpha Z        PSCENC =         0.00121808
  Ewald energy   TEWEN  =        15.17917677
  -Hartree energ DENC   =       -31.58497114
  -exchange      EXHF   =         0.00000000
  -V(xc)+E(xc)   XCENC  =         5.19462849
  PAW double counting   =        24.43849150      -24.49183131
  entropy T*S    EENTRO =        -0.00000000
  eigenvalues    EBANDS =       -20.78222254
  atomic energy  EATOM  =        25.06705842
  Solvation  Ediel_sol  =         0.00000000
  ---------------------------------------------------
  free energy    TOTEN  =        -6.97845173 eV

  energy without entropy =       -6.97845173  energy(sigma->0) =       -6.97845173


--------------------------------------------------------------------------------------------------------




--------------------------------------- Iteration      5(  12)  ---------------------------------------


    POTLOK:  cpu time      0.0654: real time      0.0663
    SETDIJ:  cpu time      0.0874: real time      0.0881
     EDDAV:  cpu time      0.4032: real time      0.4070
       DOS:  cpu time      0.0265: real time      0.0266
    CHARGE:  cpu time      0.1034: real time      0.1042
    MIXING:  cpu time      0.0151: real time      0.0152
    --------------------------------------------
      LOOP:  cpu time      0.7009: real time      0.7073

 eigenvalue-minimisations  :   128
 total energy-change (2. order) :-0.1012045E-06  (-0.4583356E-10)
 number of electron       2.0000000 magnetization 
 augmentation part        0.0417324 magnetization 

 Broyden mixing:
  rms(total) = 0.11165E-05    rms(broyden)= 0.10434E-05
  rms(prec ) = 0.13018E-05
  weight for this iteration     100.00

 eigenvalues of (default mixing * dielectric matrix)
  average eigenvalue GAMMA=   2.8943
  8.6730  5.4304  3.8043  2.9519  2.6131  2.4452  1.9343  1.0456  1.0013  1.0013
  0.9371

 Free energy of the ion-electron system (eV)
  ---------------------------------------------------
  alpha Z        PSCENC =         0.00121808
  Ewald energy   TEWEN  =        15.17917677
  -Hartree energ DENC   =       -31.58497368
  -exchange      EXHF   =         0.00000000
  -V(xc)+E(xc)   XCENC  =         5.19462878
  PAW double counting   =        24.43849665      -24.49183649
  entropy T*S    EENTRO =        -0.00000000
  eigenvalues    EBANDS =       -20.78222038
  atomic energy  EATOM  =        25.06705842
  Solvation  Ediel_sol  =         0.00000000
  ---------------------------------------------------
  free energy    TOTEN  =        -6.97845183 eV

  energy without entropy =       -6.97845183  energy(sigma->0) =       -6.97845183


--------------------------------------------------------------------------------------------------------




--------------------------------------- Iteration      5(  13)  ---------------------------------------


    POTLOK:  cpu time      0.2146: real time      0.2166
    SETDIJ:  cpu time      0.1311: real time      0.1321
     EDDAV:  cpu time      0.4756: real time      0.4793
       DOS:  cpu time      0.0156: real time      0.0157
    --------------------------------------------
      LOOP:  cpu time      0.8370: real time      0.8436

 eigenvalue-minimisations  :    96
 total energy-change (2. order) :-0.5740304E-07  (-0.2644995E-10)
 number of electron       2.0000000 magnetization 
 augmentation part        0.0417324 magnetization 

 Free energy of the ion-electron system (eV)
  ---------------------------------------------------
  alpha Z        PSCENC =         0.00121808
  Ewald energy   TEWEN  =        15.17917677
  -Hartree energ DENC   =       -31.58497214
  -exchange      EXHF   =         0.00000000
  -V(xc)+E(xc)   XCENC  =         5.19462854
  PAW double counting   =        24.43848570      -24.49182551
  entropy T*S    EENTRO =        -0.00000000
  eigenvalues    EBANDS =       -20.78222175
  atomic energy  EATOM  =        25.06705842
  Solvation  Ediel_sol  =         0.00000000
  ---------------------------------------------------
  free energy    TOTEN  =        -6.97845189 eV

  energy without entropy =       -6.97845189  energy(sigma->0) =       -6.97845189


--------------------------------------------------------------------------------------------------------




 average (electrostatic) potential at core
  the test charge radii are     0.5201
  (the norm of the test charge is              1.0000)
       1 -41.7985       2 -41.7987



 E-fermi : -10.3210     XC(G=0):  -0.0652     alpha+bet : -0.0069

 val. band max:      -10.3911108760   @ k =   0.0000   0.0000   0.0000
 cond. band min:      -0.0585429304   @ k =   0.0000   0.0000   0.0000
 fundamental gap:     10.3325679456
 Fermi energy:       -10.3209846942

 k-point     1 :       0.0000    0.0000    0.0000
  band No.  band energies     occupation 
      1     -10.3911      2.00000
      2      -0.0585      0.00000
      3       0.1115      0.00000
      4       0.2350      0.00000
      5       0.3117      0.00000
      6       0.3119      0.00000
      7       0.3558      0.00000
      8       0.3573      0.00000
      9       0.4425      0.00000
     10       0.5998      0.00000
     11       0.6000      0.00000
     12       0.6329      0.00000
     13       0.7273      0.00000
     14       0.7277      0.00000
     15       0.7295      0.00000
     16       0.7319      0.00000
     17       0.7343      0.00000
     18       0.7370      0.00000
     19       0.7375      0.00000
     20       0.7398      0.00000
     21       0.8745      0.00000
     22       1.0061      0.00000
     23       1.0063      0.00000
     24       1.0699      0.00000
     25       1.1024      0.00000
     26       1.1025      0.00000
     27       1.1039      0.00000
     28       1.1133      0.00000
     29       1.2049      0.00000
     30       1.3430      0.00000
     31       1.3440      0.00000
     32       1.4612      0.00000


--------------------------------------------------------------------------------------------------------


 soft charge-density along one line, spin component           1
         0         1         2         3         4         5         6         7         8         9
 total charge-density along one line

 pseudopotential strength for first ion, spin component:           1
 -2.344  -4.040  -0.000   0.000  -0.009
 -4.040  -6.877  -0.001   0.000  -0.019
 -0.000  -0.001  -0.343  -0.000   0.001
  0.000   0.000  -0.000  -0.343  -0.000
 -0.009  -0.019   0.001  -0.000  -0.321
 total augmentation occupancy for first ion, spin component:           1
  3.114  -0.484   0.010   0.000   0.380
 -0.484   0.075  -0.002  -0.000  -0.059
  0.010  -0.002   0.000   0.000   0.001
  0.000  -0.000   0.000   0.000   0.000
  0.380  -0.059   0.001   0.000   0.046


------------------------ aborting loop because EDIFF is reached ----------------------------------------


    CHARGE:  cpu time      0.1139: real time      0.1148
    FORLOC:  cpu time      0.0141: real time      0.0142
    FORNL :  cpu time      0.4822: real time      0.4862
    STRESS:  cpu time      0.8446: real time      0.8547
    FORHAR:  cpu time      0.0154: real time      0.0155
    MIXING:  cpu time      0.0022: real time      0.0022
    OFIELD:  cpu time      0.0000: real time      0.0000

 ---------------------------------------------------------------------------------------------

         DFTD3 V3.0 Rev 1        
 Edisp (eV)   -0.00000

 E6    (eV) :    -0.0000
 E8    (eV) :    -0.0000
 % E8        :  4.58
    FORVDW:  cpu time      0.0076: real time      0.0078

  FORCE on cell =-STRESS in cart. coord.  units (eV):
  Direction    XX          YY          ZZ          XY          YZ          ZX
  --------------------------------------------------------------------------------------
  Alpha Z     0.00122     0.00122     0.00122
  Ewald      17.89132    -1.34917    -1.36296     0.51500     0.00000     0.00000
  Hartree    12.02915     9.77872     9.77711     0.06010     0.00000     0.00000
  E(xc)      -5.83914    -6.13633    -6.13655     0.00796     0.00000    -0.00000
  Local     -31.90571   -18.29674   -18.28698    -0.36400    -0.00000    -0.00000
  n-local    -6.41474    -5.44811    -5.44741    -0.02589    -0.00000     0.00000
  augment     0.20200     0.27229     0.27233    -0.00189     0.00000     0.00000
  Kinetic    13.87232    21.05818    21.06333    -0.19246    -0.00000     0.00000
  Fock        0.00000     0.00000     0.00000     0.00000     0.00000     0.00000
  vdW         0.00003    -0.00000    -0.00000     0.00000     0.00000     0.00000
  -------------------------------------------------------------------------------------
  Total      -0.16355    -0.11996    -0.11991    -0.00117     0.00000     0.00000
  in kB      -0.03275    -0.02402    -0.02401    -0.00023     0.00000     0.00000
  external pressure =       -0.03 kB  Pullay stress =        0.00 kB


 VOLUME and BASIS-vectors are now :
 -----------------------------------------------------------------------------
  energy-cutoff  :      400.00
  volume of cell :     8000.00
      direct lattice vectors                 reciprocal lattice vectors
    20.000000000  0.000000000  0.000000000     0.050000000  0.000000000  0.000000000
     0.000000000 20.000000000  0.000000000     0.000000000  0.050000000  0.000000000
     0.000000000  0.000000000 20.000000000     0.000000000  0.000000000  0.050000000

  length of vectors
    20.000000000 20.000000000 20.000000000     0.050000000  0.050000000  0.050000000


 FORCES acting on ions
    electron-ion (+dipol)            ewald-force                    non-local-force                 convergence-correction
 -----------------------------------------------------------------------------------------------
   0.207E+02 0.553E+00 0.168E-06   -.258E+02 -.689E+00 -.100E-06   0.510E+01 0.137E+00 0.414E-06   0.307E-06 -.811E-06 -.492E-10
   -.207E+02 -.553E+00 -.218E-07   0.258E+02 0.689E+00 0.100E-06   -.510E+01 -.136E+00 -.544E-06   0.351E-06 -.507E-06 -.354E-10
 -----------------------------------------------------------------------------------------------
   0.742E-06 0.240E-03 0.147E-06   0.000E+00 0.000E+00 0.315E-18   -.658E-05 0.178E-03 -.130E-06   0.657E-06 -.132E-05 -.846E-10


 POSITION                                       TOTAL-FORCE (eV/Angst)
 -----------------------------------------------------------------------------------
      9.62636      9.98000     10.00000         0.010687      0.000407      0.000000
     10.37364     10.00000     10.00000        -0.010687     -0.000407     -0.000000
 -----------------------------------------------------------------------------------
    total drift:                               -0.000005      0.000417      0.000000


--------------------------------------------------------------------------------------------------------



  FREE ENERGIE OF THE ION-ELECTRON SYSTEM (eV)
  ---------------------------------------------------
  free  energy   TOTEN  =        -6.97845633 eV

  energy  without entropy=       -6.97845633  energy(sigma->0) =       -6.97845633

 d Force = 0.2979075E-08[-0.163E-04, 0.163E-04]  d Energy =-0.5165774E-08 0.814E-08
 d Force = 0.2032946E-09[ 0.276E-01,-0.276E-01]  d Ewald  = 0.2037410E-09-0.446E-12


--------------------------------------------------------------------------------------------------------


    POTLOK:  cpu time      0.1515: real time      0.1530


--------------------------------------------------------------------------------------------------------


 Finite differences progress:
  Degree of freedom:   2/  6
  Displacement:        2/  2
  Total:               4/ 12
    WAVPRE:  cpu time      0.0045: real time      0.0074
    FEWALD:  cpu time      0.0035: real time      0.0035
    ORTHCH:  cpu time      0.0382: real time      0.0456
     LOOP+:  cpu time      8.0579: real time      8.1632


--------------------------------------- Ionic step        6  -------------------------------------------




--------------------------------------- Iteration      6(   1)  ---------------------------------------


    POTLOK:  cpu time      0.1260: real time      0.8325
    SETDIJ:  cpu time      0.0718: real time      0.0907
     EDDAV:  cpu time      0.1261: real time      0.1682
       DOS:  cpu time      0.0069: real time      0.0070
    CHARGE:  cpu time      0.1003: real time      0.1015
    MIXING:  cpu time      0.0425: real time      0.0428
    --------------------------------------------
      LOOP:  cpu time      0.4735: real time      1.2428

 eigenvalue-minimisations  :    64
 total energy-change (2. order) :-0.3262282E-04  (-0.2868745E-01)
 number of electron       2.0000000 magnetization 
 augmentation part        0.0417124 magnetization 

 Broyden mixing:
  rms(total) = 0.14119E-01    rms(broyden)= 0.14088E-01
  rms(prec ) = 0.14792E-01
  weight for this iteration     100.00

 Free energy of the ion-electron system (eV)
  ---------------------------------------------------
  alpha Z        PSCENC =         0.00121808
  Ewald energy   TEWEN  =        15.17917677
  -Hartree energ DENC   =       -31.58362283
  -exchange      EXHF   =         0.00000000
  -V(xc)+E(xc)   XCENC  =         5.19457268
  PAW double counting   =        24.43848660      -24.49182642
  entropy T*S    EENTRO =        -0.00000000
  eigenvalues    EBANDS =       -20.78354777
  atomic energy  EATOM  =        25.06705842
  Solvation  Ediel_sol  =         0.00000000
  ---------------------------------------------------
  free energy    TOTEN  =        -6.97848446 eV

  energy without entropy =       -6.97848446  energy(sigma->0) =       -6.97848446


--------------------------------------------------------------------------------------------------------




--------------------------------------- Iteration      6(   2)  ---------------------------------------


    POTLOK:  cpu time      0.1489: real time      0.1513
    SETDIJ:  cpu time      0.0886: real time      0.0892
     EDDAV:  cpu time      0.2481: real time      0.2505
       DOS:  cpu time      0.0006: real time      0.0006
    CHARGE:  cpu time      0.0634: real time      0.0646
    MIXING:  cpu time      0.0394: real time      0.0397
    --------------------------------------------
      LOOP:  cpu time      0.5891: real time      0.5958

 eigenvalue-minimisations  :    64
 total energy-change (2. order) : 0.8955411E-04  (-0.8710194E-04)
 number of electron       2.0000000 magnetization 
 augmentation part        0.0417316 magnetization 

 Broyden mixing:
  rms(total) = 0.83438E-02    rms(broyden)= 0.83399E-02
  rms(prec ) = 0.87277E-02
  weight for this iteration     100.00

 eigenvalues of (default mixing * dielectric matrix)
  average eigenvalue GAMMA=   2.4116
  2.4116

 Free energy of the ion-electron system (eV)
  ---------------------------------------------------
  alpha Z        PSCENC =         0.00121808
  Ewald energy   TEWEN  =        15.17917677
  -Hartree energ DENC   =       -31.58258691
  -exchange      EXHF   =         0.00000000
  -V(xc)+E(xc)   XCENC  =         5.19438758
  PAW double counting   =        24.44096823      -24.49429110
  entropy T*S    EENTRO =        -0.00000000
  eigenvalues    EBANDS =       -20.78432599
  atomic energy  EATOM  =        25.06705842
  Solvation  Ediel_sol  =         0.00000000
  ---------------------------------------------------
  free energy    TOTEN  =        -6.97839490 eV

  energy without entropy =       -6.97839490  energy(sigma->0) =       -6.97839490


--------------------------------------------------------------------------------------------------------




--------------------------------------- Iteration      6(   3)  ---------------------------------------


    POTLOK:  cpu time      0.0829: real time      0.0851
    SETDIJ:  cpu time      0.0883: real time      0.0891
     EDDAV:  cpu time      0.2309: real time      0.2338
       DOS:  cpu time      0.0010: real time      0.0010
    CHARGE:  cpu time      0.0545: real time      0.0556
    MIXING:  cpu time      0.0022: real time      0.0022
    --------------------------------------------
      LOOP:  cpu time      0.4598: real time      0.4668

 eigenvalue-minimisations  :    96
 total energy-change (2. order) :-0.3502456E-04  (-0.1836917E-04)
 number of electron       2.0000000 magnetization 
 augmentation part        0.0417324 magnetization 

 Broyden mixing:
  rms(total) = 0.40072E-03    rms(broyden)= 0.39782E-03
  rms(prec ) = 0.43650E-03
  weight for this iteration     100.00

 eigenvalues of (default mixing * dielectric matrix)
  average eigenvalue GAMMA=   1.7806
  1.0988  2.4623

 Free energy of the ion-electron system (eV)
  ---------------------------------------------------
  alpha Z        PSCENC =         0.00121808
  Ewald energy   TEWEN  =        15.17917677
  -Hartree energ DENC   =       -31.58505909
  -exchange      EXHF   =         0.00000000
  -V(xc)+E(xc)   XCENC  =         5.19465522
  PAW double counting   =        24.44290233      -24.49624112
  entropy T*S    EENTRO =        -0.00000000
  eigenvalues    EBANDS =       -20.78214055
  atomic energy  EATOM  =        25.06705842
  Solvation  Ediel_sol  =         0.00000000
  ---------------------------------------------------
  free energy    TOTEN  =        -6.97842993 eV

  energy without entropy =       -6.97842993  energy(sigma->0) =       -6.97842993


--------------------------------------------------------------------------------------------------------




--------------------------------------- Iteration      6(   4)  ---------------------------------------


    POTLOK:  cpu time      0.0892: real time      0.0906
    SETDIJ:  cpu time      0.0883: real time      0.0890
     EDDAV:  cpu time      0.2299: real time      0.2325
       DOS:  cpu time      0.0005: real time      0.0005
    CHARGE:  cpu time      0.0544: real time      0.0555
    MIXING:  cpu time      0.0019: real time      0.0019
    --------------------------------------------
      LOOP:  cpu time      0.4643: real time      0.4701

 eigenvalue-minimisations  :    96
 total energy-change (2. order) :-0.4020048E-05  (-0.4864728E-07)
 number of electron       2.0000000 magnetization 
 augmentation part        0.0417324 magnetization 

 Broyden mixing:
  rms(total) = 0.20568E-03    rms(broyden)= 0.20538E-03
  rms(prec ) = 0.24029E-03
  weight for this iteration     100.00

 eigenvalues of (default mixing * dielectric matrix)
  average eigenvalue GAMMA=   2.1226
  1.0055  2.4629  2.8993

 Free energy of the ion-electron system (eV)
  ---------------------------------------------------
  alpha Z        PSCENC =         0.00121808
  Ewald energy   TEWEN  =        15.17917677
  -Hartree energ DENC   =       -31.58510300
  -exchange      EXHF   =         0.00000000
  -V(xc)+E(xc)   XCENC  =         5.19465775
  PAW double counting   =        24.44156783      -24.49490737
  entropy T*S    EENTRO =        -0.00000000
  eigenvalues    EBANDS =       -20.78210244
  atomic energy  EATOM  =        25.06705842
  Solvation  Ediel_sol  =         0.00000000
  ---------------------------------------------------
  free energy    TOTEN  =        -6.97843395 eV

  energy without entropy =       -6.97843395  energy(sigma->0) =       -6.97843395


--------------------------------------------------------------------------------------------------------




--------------------------------------- Iteration      6(   5)  ---------------------------------------


    POTLOK:  cpu time      0.0642: real time      0.0655
    SETDIJ:  cpu time      0.0879: real time      0.0885
     EDDAV:  cpu time      0.2257: real time      0.2283
       DOS:  cpu time      0.0008: real time      0.0008
    CHARGE:  cpu time      0.0546: real time      0.0556
    MIXING:  cpu time      0.0045: real time      0.0046
    --------------------------------------------
      LOOP:  cpu time      0.4376: real time      0.4432

 eigenvalue-minimisations  :    96
 total energy-change (2. order) :-0.7066301E-05  (-0.1172897E-06)
 number of electron       2.0000000 magnetization 
 augmentation part        0.0417325 magnetization 

 Broyden mixing:
  rms(total) = 0.38229E-04    rms(broyden)= 0.37730E-04
  rms(prec ) = 0.56592E-04
  weight for this iteration     100.00

 eigenvalues of (default mixing * dielectric matrix)
  average eigenvalue GAMMA=   2.1907
  1.0026  2.9723  2.3940  2.3940

 Free energy of the ion-electron system (eV)
  ---------------------------------------------------
  alpha Z        PSCENC =         0.00121808
  Ewald energy   TEWEN  =        15.17917677
  -Hartree energ DENC   =       -31.58502905
  -exchange      EXHF   =         0.00000000
  -V(xc)+E(xc)   XCENC  =         5.19464250
  PAW double counting   =        24.43942632      -24.49276613
  entropy T*S    EENTRO =        -0.00000000
  eigenvalues    EBANDS =       -20.78216793
  atomic energy  EATOM  =        25.06705842
  Solvation  Ediel_sol  =         0.00000000
  ---------------------------------------------------
  free energy    TOTEN  =        -6.97844101 eV

  energy without entropy =       -6.97844101  energy(sigma->0) =       -6.97844101


--------------------------------------------------------------------------------------------------------




--------------------------------------- Iteration      6(   6)  ---------------------------------------


    POTLOK:  cpu time      0.0629: real time      0.0653
    SETDIJ:  cpu time      0.0882: real time      0.0889
     EDDAV:  cpu time      0.2284: real time      0.2309
       DOS:  cpu time      0.0006: real time      0.0006
    CHARGE:  cpu time      0.0548: real time      0.0559
    MIXING:  cpu time      0.0021: real time      0.0021
    --------------------------------------------
      LOOP:  cpu time      0.4369: real time      0.4436

 eigenvalue-minimisations  :    96
 total energy-change (2. order) :-0.4988402E-05  (-0.3253725E-07)
 number of electron       2.0000000 magnetization 
 augmentation part        0.0417324 magnetization 

 Broyden mixing:
  rms(total) = 0.29494E-04    rms(broyden)= 0.29006E-04
  rms(prec ) = 0.37695E-04
  weight for this iteration     100.00

 eigenvalues of (default mixing * dielectric matrix)
  average eigenvalue GAMMA=   2.1016
  3.4773  2.6288  2.4867  1.0002  0.9149

 Free energy of the ion-electron system (eV)
  ---------------------------------------------------
  alpha Z        PSCENC =         0.00121808
  Ewald energy   TEWEN  =        15.17917677
  -Hartree energ DENC   =       -31.58501686
  -exchange      EXHF   =         0.00000000
  -V(xc)+E(xc)   XCENC  =         5.19463785
  PAW double counting   =        24.43973849      -24.49307844
  entropy T*S    EENTRO =        -0.00000000
  eigenvalues    EBANDS =       -20.78218031
  atomic energy  EATOM  =        25.06705842
  Solvation  Ediel_sol  =         0.00000000
  ---------------------------------------------------
  free energy    TOTEN  =        -6.97844600 eV

  energy without entropy =       -6.97844600  energy(sigma->0) =       -6.97844600


--------------------------------------------------------------------------------------------------------




--------------------------------------- Iteration      6(   7)  ---------------------------------------


    POTLOK:  cpu time      0.0637: real time      0.0648
    SETDIJ:  cpu time      0.0886: real time      0.0893
     EDDAV:  cpu time      0.2255: real time      0.2280
       DOS:  cpu time      0.0005: real time      0.0005
    CHARGE:  cpu time      0.0536: real time      0.0547
    MIXING:  cpu time      0.0028: real time      0.0028
    --------------------------------------------
      LOOP:  cpu time      0.4347: real time      0.4402

 eigenvalue-minimisations  :    96
 total energy-change (2. order) :-0.1993766E-05  (-0.7980734E-08)
 number of electron       2.0000000 magnetization 
 augmentation part        0.0417324 magnetization 

 Broyden mixing:
  rms(total) = 0.11264E-04    rms(broyden)= 0.99276E-05
  rms(prec ) = 0.18051E-04
  weight for this iteration     100.00
  WARNING: grid for Broyden might be to small

 eigenvalues of (default mixing * dielectric matrix)
  average eigenvalue GAMMA=   2.3304
  4.4398  1.0001  0.9870  2.8897  2.3330  2.3330

 Free energy of the ion-electron system (eV)
  ---------------------------------------------------
  alpha Z        PSCENC =         0.00121808
  Ewald energy   TEWEN  =        15.17917677
  -Hartree energ DENC   =       -31.58499373
  -exchange      EXHF   =         0.00000000
  -V(xc)+E(xc)   XCENC  =         5.19463355
  PAW double counting   =        24.43972381      -24.49306370
  entropy T*S    EENTRO =        -0.00000000
  eigenvalues    EBANDS =       -20.78220120
  atomic energy  EATOM  =        25.06705842
  Solvation  Ediel_sol  =         0.00000000
  ---------------------------------------------------
  free energy    TOTEN  =        -6.97844800 eV

  energy without entropy =       -6.97844800  energy(sigma->0) =       -6.97844800


--------------------------------------------------------------------------------------------------------




--------------------------------------- Iteration      6(   8)  ---------------------------------------


    POTLOK:  cpu time      0.0646: real time      0.0658
    SETDIJ:  cpu time      0.0885: real time      0.0892
     EDDAV:  cpu time      0.1710: real time      0.1730
       DOS:  cpu time      0.0004: real time      0.0004
    CHARGE:  cpu time      0.0546: real time      0.0558
    MIXING:  cpu time      0.0022: real time      0.0022
    --------------------------------------------
      LOOP:  cpu time      0.3812: real time      0.3865

 eigenvalue-minimisations  :    64
 total energy-change (2. order) :-0.2317775E-05  (-0.1026998E-07)
 number of electron       2.0000000 magnetization 
 augmentation part        0.0417324 magnetization 

 Broyden mixing:
  rms(total) = 0.73802E-05    rms(broyden)= 0.51147E-05
  rms(prec ) = 0.88369E-05
  weight for this iteration     100.00
  WARNING: grid for Broyden might be to small

 eigenvalues of (default mixing * dielectric matrix)
  average eigenvalue GAMMA=   2.4574
  5.2203  3.1036  2.5519  2.5519  1.0169  1.0021  1.7549

 Free energy of the ion-electron system (eV)
  ---------------------------------------------------
  alpha Z        PSCENC =         0.00121808
  Ewald energy   TEWEN  =        15.17917677
  -Hartree energ DENC   =       -31.58497686
  -exchange      EXHF   =         0.00000000
  -V(xc)+E(xc)   XCENC  =         5.19463003
  PAW double counting   =        24.43968589      -24.49302569
  entropy T*S    EENTRO =        -0.00000000
  eigenvalues    EBANDS =       -20.78221695
  atomic energy  EATOM  =        25.06705842
  Solvation  Ediel_sol  =         0.00000000
  ---------------------------------------------------
  free energy    TOTEN  =        -6.97845031 eV

  energy without entropy =       -6.97845031  energy(sigma->0) =       -6.97845031


--------------------------------------------------------------------------------------------------------




--------------------------------------- Iteration      6(   9)  ---------------------------------------


    POTLOK:  cpu time      0.0644: real time      0.0654
    SETDIJ:  cpu time      0.0880: real time      0.0886
     EDDAV:  cpu time      0.2252: real time      0.2278
       DOS:  cpu time      0.0005: real time      0.0005
    CHARGE:  cpu time      0.0538: real time      0.0549
    MIXING:  cpu time      0.0023: real time      0.0023
    --------------------------------------------
      LOOP:  cpu time      0.4343: real time      0.4395

 eigenvalue-minimisations  :    96
 total energy-change (2. order) :-0.7904173E-06  (-0.1130552E-08)
 number of electron       2.0000000 magnetization 
 augmentation part        0.0417324 magnetization 

 Broyden mixing:
  rms(total) = 0.57159E-05    rms(broyden)= 0.20905E-05
  rms(prec ) = 0.43068E-05
  weight for this iteration     100.00
  WARNING: grid for Broyden might be to small

 eigenvalues of (default mixing * dielectric matrix)
  average eigenvalue GAMMA=   2.5383
  6.1855  3.5183  2.7951  2.3117  2.3117  1.0022  1.0179  1.1638

 Free energy of the ion-electron system (eV)
  ---------------------------------------------------
  alpha Z        PSCENC =         0.00121808
  Ewald energy   TEWEN  =        15.17917677
  -Hartree energ DENC   =       -31.58497350
  -exchange      EXHF   =         0.00000000
  -V(xc)+E(xc)   XCENC  =         5.19462909
  PAW double counting   =        24.43966447      -24.49300428
  entropy T*S    EENTRO =        -0.00000000
  eigenvalues    EBANDS =       -20.78222016
  atomic energy  EATOM  =        25.06705842
  Solvation  Ediel_sol  =         0.00000000
  ---------------------------------------------------
  free energy    TOTEN  =        -6.97845110 eV

  energy without entropy =       -6.97845110  energy(sigma->0) =       -6.97845110


--------------------------------------------------------------------------------------------------------




--------------------------------------- Iteration      6(  10)  ---------------------------------------


    POTLOK:  cpu time      0.0646: real time      0.0659
    SETDIJ:  cpu time      0.0877: real time      0.0884
     EDDAV:  cpu time      0.2279: real time      0.2306
       DOS:  cpu time      0.0005: real time      0.0005
    CHARGE:  cpu time      0.0545: real time      0.0556
    MIXING:  cpu time      0.0024: real time      0.0024
    --------------------------------------------
      LOOP:  cpu time      0.4376: real time      0.4434

 eigenvalue-minimisations  :    96
 total energy-change (2. order) :-0.2759324E-06  (-0.2505942E-09)
 number of electron       2.0000000 magnetization 
 augmentation part        0.0417324 magnetization 

 Broyden mixing:
  rms(total) = 0.55688E-05    rms(broyden)= 0.16463E-05
  rms(prec ) = 0.27706E-05
  weight for this iteration     100.00
  WARNING: grid for Broyden might be to small

 eigenvalues of (default mixing * dielectric matrix)
  average eigenvalue GAMMA=   2.7981
  7.4202  4.4253  2.9070  2.5574  2.5574  2.2668  0.9974  1.0026  1.0487

 Free energy of the ion-electron system (eV)
  ---------------------------------------------------
  alpha Z        PSCENC =         0.00121808
  Ewald energy   TEWEN  =        15.17917677
  -Hartree energ DENC   =       -31.58497184
  -exchange      EXHF   =         0.00000000
  -V(xc)+E(xc)   XCENC  =         5.19462866
  PAW double counting   =        24.43966184      -24.49300166
  entropy T*S    EENTRO =        -0.00000000
  eigenvalues    EBANDS =       -20.78222166
  atomic energy  EATOM  =        25.06705842
  Solvation  Ediel_sol  =         0.00000000
  ---------------------------------------------------
  free energy    TOTEN  =        -6.97845138 eV

  energy without entropy =       -6.97845138  energy(sigma->0) =       -6.97845138


--------------------------------------------------------------------------------------------------------




--------------------------------------- Iteration      6(  11)  ---------------------------------------


    POTLOK:  cpu time      0.0642: real time      0.0652
    SETDIJ:  cpu time      0.0878: real time      0.0884
     EDDAV:  cpu time      0.2265: real time      0.2290
       DOS:  cpu time      0.0005: real time      0.0005
    CHARGE:  cpu time      0.0546: real time      0.0557
    MIXING:  cpu time      0.0024: real time      0.0024
    --------------------------------------------
      LOOP:  cpu time      0.4359: real time      0.4412

 eigenvalue-minimisations  :    96
 total energy-change (2. order) :-0.1964575E-06  (-0.1352589E-09)
 number of electron       2.0000000 magnetization 
 augmentation part        0.0417324 magnetization 

 Broyden mixing:
  rms(total) = 0.54046E-05    rms(broyden)= 0.95323E-06
  rms(prec ) = 0.13281E-05
  weight for this iteration     100.00
  WARNING: grid for Broyden might be to small

 eigenvalues of (default mixing * dielectric matrix)
  average eigenvalue GAMMA=   2.6736
  7.7086  4.5351  3.1715  2.7033  2.4074  1.8000  1.0236  1.0046  0.9690  1.4128

 Free energy of the ion-electron system (eV)
  ---------------------------------------------------
  alpha Z        PSCENC =         0.00121808
  Ewald energy   TEWEN  =        15.17917677
  -Hartree energ DENC   =       -31.58497072
  -exchange      EXHF   =         0.00000000
  -V(xc)+E(xc)   XCENC  =         5.19462832
  PAW double counting   =        24.43967136      -24.49301117
  entropy T*S    EENTRO =        -0.00000000
  eigenvalues    EBANDS =       -20.78222265
  atomic energy  EATOM  =        25.06705842
  Solvation  Ediel_sol  =         0.00000000
  ---------------------------------------------------
  free energy    TOTEN  =        -6.97845158 eV

  energy without entropy =       -6.97845158  energy(sigma->0) =       -6.97845158


--------------------------------------------------------------------------------------------------------




--------------------------------------- Iteration      6(  12)  ---------------------------------------


    POTLOK:  cpu time      0.0647: real time      0.0657
    SETDIJ:  cpu time      0.0880: real time      0.0887
     EDDAV:  cpu time      0.3019: real time      0.3053
       DOS:  cpu time      0.0011: real time      0.0011
    --------------------------------------------
      LOOP:  cpu time      0.4556: real time      0.4608

 eigenvalue-minimisations  :   128
 total energy-change (2. order) :-0.4373586E-07  (-0.8910206E-11)
 number of electron       2.0000000 magnetization 
 augmentation part        0.0417324 magnetization 

 Free energy of the ion-electron system (eV)
  ---------------------------------------------------
  alpha Z        PSCENC =         0.00121808
  Ewald energy   TEWEN  =        15.17917677
  -Hartree energ DENC   =       -31.58497112
  -exchange      EXHF   =         0.00000000
  -V(xc)+E(xc)   XCENC  =         5.19462835
  PAW double counting   =        24.43967208      -24.49301190
  entropy T*S    EENTRO =        -0.00000000
  eigenvalues    EBANDS =       -20.78222230
  atomic energy  EATOM  =        25.06705842
  Solvation  Ediel_sol  =         0.00000000
  ---------------------------------------------------
  free energy    TOTEN  =        -6.97845162 eV

  energy without entropy =       -6.97845162  energy(sigma->0) =       -6.97845162


--------------------------------------------------------------------------------------------------------




 average (electrostatic) potential at core
  the test charge radii are     0.5201
  (the norm of the test charge is              1.0000)
       1 -41.7985       2 -41.7987



 E-fermi : -10.3210     XC(G=0):  -0.0659     alpha+bet : -0.0069

 val. band max:      -10.3911111519   @ k =   0.0000   0.0000   0.0000
 cond. band min:      -0.0590317953   @ k =   0.0000   0.0000   0.0000
 fundamental gap:     10.3320793566
 Fermi energy:       -10.3209871042

 k-point     1 :       0.0000    0.0000    0.0000
  band No.  band energies     occupation 
      1     -10.3911      2.00000
      2      -0.0590      0.00000
      3       0.1113      0.00000
      4       0.2346      0.00000
      5       0.3110      0.00000
      6       0.3116      0.00000
      7       0.3558      0.00000
      8       0.3564      0.00000
      9       0.4410      0.00000
     10       0.5993      0.00000
     11       0.5998      0.00000
     12       0.6321      0.00000
     13       0.7253      0.00000
     14       0.7273      0.00000
     15       0.7277      0.00000
     16       0.7315      0.00000
     17       0.7341      0.00000
     18       0.7355      0.00000
     19       0.7370      0.00000
     20       0.7405      0.00000
     21       0.8733      0.00000
     22       1.0058      0.00000
     23       1.0058      0.00000
     24       1.0701      0.00000
     25       1.1007      0.00000
     26       1.1011      0.00000
     27       1.1042      0.00000
     28       1.1117      0.00000
     29       1.2040      0.00000
     30       1.3430      0.00000
     31       1.3434      0.00000
     32       1.4608      0.00000


--------------------------------------------------------------------------------------------------------


 soft charge-density along one line, spin component           1
         0         1         2         3         4         5         6         7         8         9
 total charge-density along one line

 pseudopotential strength for first ion, spin component:           1
 -2.344  -4.040  -0.000   0.000  -0.009
 -4.040  -6.877  -0.000   0.001  -0.019
 -0.000  -0.000  -0.343  -0.000   0.000
  0.000   0.001  -0.000  -0.343  -0.001
 -0.009  -0.019   0.000  -0.001  -0.321
 total augmentation occupancy for first ion, spin component:           1
  3.114  -0.484  -0.000  -0.010   0.380
 -0.484   0.075   0.000   0.002  -0.059
 -0.000   0.000   0.000   0.000  -0.000
 -0.010   0.002   0.000   0.000  -0.001
  0.380  -0.059  -0.000  -0.001   0.046


------------------------ aborting loop because EDIFF is reached ----------------------------------------


    CHARGE:  cpu time      0.0537: real time      0.0543
    FORLOC:  cpu time      0.0013: real time      0.0013
    FORNL :  cpu time      0.2423: real time      0.2453
    STRESS:  cpu time      0.8423: real time      0.8527
    FORHAR:  cpu time      0.0152: real time      0.0153
    MIXING:  cpu time      0.0022: real time      0.0022
    OFIELD:  cpu time      0.0000: real time      0.0000

 ---------------------------------------------------------------------------------------------

         DFTD3 V3.0 Rev 1        
 Edisp (eV)   -0.00000

 E6    (eV) :    -0.0000
 E8    (eV) :    -0.0000
 % E8        :  4.58
    FORVDW:  cpu time      0.0077: real time      0.0078

  FORCE on cell =-STRESS in cart. coord.  units (eV):
  Direction    XX          YY          ZZ          XY          YZ          ZX
  --------------------------------------------------------------------------------------
  Alpha Z     0.00122     0.00122     0.00122
  Ewald      17.89132    -1.36296    -1.34917     0.00000    -0.00000    -0.51500
  Hartree    12.02915     9.77711     9.77872    -0.00000    -0.00000    -0.06010
  E(xc)      -5.83914    -6.13655    -6.13633     0.00000    -0.00000    -0.00796
  Local     -31.90571   -18.28698   -18.29674     0.00000     0.00000     0.36400
  n-local    -6.41474    -5.44741    -5.44811    -0.00000    -0.00000     0.02589
  augment     0.20200     0.27233     0.27230     0.00000     0.00000     0.00189
  Kinetic    13.87232    21.06333    21.05818     0.00000     0.00000     0.19246
  Fock        0.00000     0.00000     0.00000     0.00000     0.00000     0.00000
  vdW         0.00003    -0.00000    -0.00000     0.00000    -0.00000    -0.00000
  -------------------------------------------------------------------------------------
  Total      -0.16355    -0.11992    -0.11995     0.00000     0.00000     0.00117
  in kB      -0.03275    -0.02402    -0.02402     0.00000     0.00000     0.00024
  external pressure =       -0.03 kB  Pullay stress =        0.00 kB


 VOLUME and BASIS-vectors are now :
 -----------------------------------------------------------------------------
  energy-cutoff  :      400.00
  volume of cell :     8000.00
      direct lattice vectors                 reciprocal lattice vectors
    20.000000000  0.000000000  0.000000000     0.050000000  0.000000000  0.000000000
     0.000000000 20.000000000  0.000000000     0.000000000  0.050000000  0.000000000
     0.000000000  0.000000000 20.000000000     0.000000000  0.000000000  0.050000000

  length of vectors
    20.000000000 20.000000000 20.000000000     0.050000000  0.050000000  0.050000000


 FORCES acting on ions
    electron-ion (+dipol)            ewald-force                    non-local-force                 convergence-correction
 -----------------------------------------------------------------------------------------------
   0.207E+02 0.159E-05 -.553E+00   -.258E+02 -.509E-08 0.689E+00   0.510E+01 0.437E-06 -.137E+00   -.313E-05 -.139E-05 -.126E-05
   -.207E+02 0.167E-05 0.553E+00   0.258E+02 0.509E-08 -.689E+00   -.510E+01 0.548E-06 0.136E+00   -.296E-05 -.161E-05 -.148E-05
 -----------------------------------------------------------------------------------------------
   0.959E-05 0.327E-05 -.237E-03   0.000E+00 -.168E-18 0.000E+00   -.696E-05 0.986E-06 -.188E-03   -.609E-05 -.299E-05 -.274E-05


 POSITION                                       TOTAL-FORCE (eV/Angst)
 -----------------------------------------------------------------------------------
      9.62636     10.00000     10.02000         0.010686      0.000000     -0.000418
     10.37364     10.00000     10.00000        -0.010686     -0.000000      0.000418
 -----------------------------------------------------------------------------------
    total drift:                               -0.000003      0.000001     -0.000428


--------------------------------------------------------------------------------------------------------



  FREE ENERGIE OF THE ION-ELECTRON SYSTEM (eV)
  ---------------------------------------------------
  free  energy   TOTEN  =        -6.97845606 eV

  energy  without entropy=       -6.97845606  energy(sigma->0) =       -6.97845606

 d Force =-0.9792489E-07[-0.835E-05, 0.816E-05]  d Energy =-0.2712977E-06 0.173E-06
 d Force =-0.2103233E-08[ 0.138E-01,-0.138E-01]  d Ewald  =-0.2105494E-08 0.226E-11


--------------------------------------------------------------------------------------------------------


    POTLOK:  cpu time      0.1521: real time      0.1533


--------------------------------------------------------------------------------------------------------


 Finite differences progress:
  Degree of freedom:   3/  6
  Displacement:        1/  2
  Total:               5/ 12
    WAVPRE:  cpu time      0.0048: real time      0.0054
    FEWALD:  cpu time      0.0003: real time      0.0003
    ORTHCH:  cpu time      0.0132: real time      0.0135
     LOOP+:  cpu time      6.8691: real time      7.7210


--------------------------------------- Ionic step        7  -------------------------------------------




--------------------------------------- Iteration      7(   1)  ---------------------------------------


    POTLOK:  cpu time      0.0635: real time      0.0640
    SETDIJ:  cpu time      0.0885: real time      0.0892
     EDDAV:  cpu time      0.1610: real time      0.1629
       DOS:  cpu time      0.0003: real time      0.0003
    CHARGE:  cpu time      0.0528: real time      0.0539
    MIXING:  cpu time      0.0023: real time      0.0023
    --------------------------------------------
      LOOP:  cpu time      0.3684: real time      0.3726

 eigenvalue-minimisations  :    64
 total energy-change (2. order) :-0.5933719E-04  (-0.5731365E-01)
 number of electron       2.0000000 magnetization 
 augmentation part        0.0416928 magnetization 

 Broyden mixing:
  rms(total) = 0.19948E-01    rms(broyden)= 0.19904E-01
  rms(prec ) = 0.20900E-01
  weight for this iteration     100.00

 Free energy of the ion-electron system (eV)
  ---------------------------------------------------
  alpha Z        PSCENC =         0.00121808
  Ewald energy   TEWEN  =        15.17917677
  -Hartree energ DENC   =       -31.58227471
  -exchange      EXHF   =         0.00000000
  -V(xc)+E(xc)   XCENC  =         5.19451666
  PAW double counting   =        24.43967011      -24.49300992
  entropy T*S    EENTRO =        -0.00000000
  eigenvalues    EBANDS =       -20.78486632
  atomic energy  EATOM  =        25.06705842
  Solvation  Ediel_sol  =         0.00000000
  ---------------------------------------------------
  free energy    TOTEN  =        -6.97851091 eV

  energy without entropy =       -6.97851091  energy(sigma->0) =       -6.97851091


--------------------------------------------------------------------------------------------------------




--------------------------------------- Iteration      7(   2)  ---------------------------------------


    POTLOK:  cpu time      0.0672: real time      0.0686
    SETDIJ:  cpu time      0.0882: real time      0.0890
     EDDAV:  cpu time      0.2254: real time      0.2280
       DOS:  cpu time      0.0005: real time      0.0005
    CHARGE:  cpu time      0.0543: real time      0.0555
    MIXING:  cpu time      0.0019: real time      0.0019
    --------------------------------------------
      LOOP:  cpu time      0.4376: real time      0.4435

 eigenvalue-minimisations  :    96
 total energy-change (2. order) : 0.1692908E-03  (-0.1811426E-03)
 number of electron       2.0000000 magnetization 
 augmentation part        0.0417335 magnetization 

 Broyden mixing:
  rms(total) = 0.11879E-01    rms(broyden)= 0.11873E-01
  rms(prec ) = 0.12426E-01
  weight for this iteration     100.00

 eigenvalues of (default mixing * dielectric matrix)
  average eigenvalue GAMMA=   2.4218
  2.4218

 Free energy of the ion-electron system (eV)
  ---------------------------------------------------
  alpha Z        PSCENC =         0.00121808
  Ewald energy   TEWEN  =        15.17917677
  -Hartree energ DENC   =       -31.58034242
  -exchange      EXHF   =         0.00000000
  -V(xc)+E(xc)   XCENC  =         5.19417395
  PAW double counting   =        24.44336830      -24.49667464
  entropy T*S    EENTRO =        -0.00000000
  eigenvalues    EBANDS =       -20.78632007
  atomic energy  EATOM  =        25.06705842
  Solvation  Ediel_sol  =         0.00000000
  ---------------------------------------------------
  free energy    TOTEN  =        -6.97834162 eV

  energy without entropy =       -6.97834162  energy(sigma->0) =       -6.97834162


--------------------------------------------------------------------------------------------------------




--------------------------------------- Iteration      7(   3)  ---------------------------------------


    POTLOK:  cpu time      0.0636: real time      0.0643
    SETDIJ:  cpu time      0.0884: real time      0.0890
     EDDAV:  cpu time      0.2259: real time      0.2285
       DOS:  cpu time      0.0006: real time      0.0006
    CHARGE:  cpu time      0.0543: real time      0.0555
    MIXING:  cpu time      0.0022: real time      0.0028
    --------------------------------------------
      LOOP:  cpu time      0.4350: real time      0.4407

 eigenvalue-minimisations  :    96
 total energy-change (2. order) :-0.6968944E-04  (-0.3981341E-04)
 number of electron       2.0000000 magnetization 
 augmentation part        0.0417320 magnetization 

 Broyden mixing:
  rms(total) = 0.51547E-03    rms(broyden)= 0.51182E-03
  rms(prec ) = 0.57192E-03
  weight for this iteration     100.00

 eigenvalues of (default mixing * dielectric matrix)
  average eigenvalue GAMMA=   1.7481
  1.0548  2.4415

 Free energy of the ion-electron system (eV)
  ---------------------------------------------------
  alpha Z        PSCENC =         0.00121808
  Ewald energy   TEWEN  =        15.17917677
  -Hartree energ DENC   =       -31.58573584
  -exchange      EXHF   =         0.00000000
  -V(xc)+E(xc)   XCENC  =         5.19476420
  PAW double counting   =        24.44539581      -24.49873895
  entropy T*S    EENTRO =        -0.00000000
  eigenvalues    EBANDS =       -20.78154981
  atomic energy  EATOM  =        25.06705842
  Solvation  Ediel_sol  =         0.00000000
  ---------------------------------------------------
  free energy    TOTEN  =        -6.97841131 eV

  energy without entropy =       -6.97841131  energy(sigma->0) =       -6.97841131


--------------------------------------------------------------------------------------------------------




--------------------------------------- Iteration      7(   4)  ---------------------------------------


    POTLOK:  cpu time      0.0648: real time      0.0659
    SETDIJ:  cpu time      0.0894: real time      0.0901
     EDDAV:  cpu time      0.2292: real time      0.2320
       DOS:  cpu time      0.0005: real time      0.0005
    CHARGE:  cpu time      0.0538: real time      0.0548
    MIXING:  cpu time      0.0022: real time      0.0023
    --------------------------------------------
      LOOP:  cpu time      0.4400: real time      0.4456

 eigenvalue-minimisations  :    96
 total energy-change (2. order) :-0.7833669E-05  (-0.7376373E-07)
 number of electron       2.0000000 magnetization 
 augmentation part        0.0417321 magnetization 

 Broyden mixing:
  rms(total) = 0.30517E-03    rms(broyden)= 0.30486E-03
  rms(prec ) = 0.35568E-03
  weight for this iteration     100.00

 eigenvalues of (default mixing * dielectric matrix)
  average eigenvalue GAMMA=   2.0852
  1.0002  2.4350  2.8204

 Free energy of the ion-electron system (eV)
  ---------------------------------------------------
  alpha Z        PSCENC =         0.00121808
  Ewald energy   TEWEN  =        15.17917677
  -Hartree energ DENC   =       -31.58549714
  -exchange      EXHF   =         0.00000000
  -V(xc)+E(xc)   XCENC  =         5.19472277
  PAW double counting   =        24.44298092      -24.49632254
  entropy T*S    EENTRO =        -0.00000000
  eigenvalues    EBANDS =       -20.78175643
  atomic energy  EATOM  =        25.06705842
  Solvation  Ediel_sol  =         0.00000000
  ---------------------------------------------------
  free energy    TOTEN  =        -6.97841915 eV

  energy without entropy =       -6.97841915  energy(sigma->0) =       -6.97841915


--------------------------------------------------------------------------------------------------------




--------------------------------------- Iteration      7(   5)  ---------------------------------------


    POTLOK:  cpu time      0.0636: real time      0.0649
    SETDIJ:  cpu time      0.0885: real time      0.0892
     EDDAV:  cpu time      0.2296: real time      0.2322
       DOS:  cpu time      0.0005: real time      0.0005
    CHARGE:  cpu time      0.0538: real time      0.0549
    MIXING:  cpu time      0.0027: real time      0.0027
    --------------------------------------------
      LOOP:  cpu time      0.4387: real time      0.4444

 eigenvalue-minimisations  :    96
 total energy-change (2. order) :-0.1394581E-04  (-0.2424550E-06)
 number of electron       2.0000000 magnetization 
 augmentation part        0.0417325 magnetization 

 Broyden mixing:
  rms(total) = 0.57193E-04    rms(broyden)= 0.56792E-04
  rms(prec ) = 0.84886E-04
  weight for this iteration     100.00

 eigenvalues of (default mixing * dielectric matrix)
  average eigenvalue GAMMA=   2.1358
  1.0024  2.9157  2.3125  2.3125

 Free energy of the ion-electron system (eV)
  ---------------------------------------------------
  alpha Z        PSCENC =         0.00121808
  Ewald energy   TEWEN  =        15.17917677
  -Hartree energ DENC   =       -31.58499600
  -exchange      EXHF   =         0.00000000
  -V(xc)+E(xc)   XCENC  =         5.19464064
  PAW double counting   =        24.43918407      -24.49252280
  entropy T*S    EENTRO =        -0.00000000
  eigenvalues    EBANDS =       -20.78219228
  atomic energy  EATOM  =        25.06705842
  Solvation  Ediel_sol  =         0.00000000
  ---------------------------------------------------
  free energy    TOTEN  =        -6.97843309 eV

  energy without entropy =       -6.97843309  energy(sigma->0) =       -6.97843309


--------------------------------------------------------------------------------------------------------




--------------------------------------- Iteration      7(   6)  ---------------------------------------


    POTLOK:  cpu time      0.0651: real time      0.0656
    SETDIJ:  cpu time      0.0883: real time      0.0889
     EDDAV:  cpu time      0.2305: real time      0.2335
       DOS:  cpu time      0.0006: real time      0.0006
    CHARGE:  cpu time      0.0544: real time      0.0554
    MIXING:  cpu time      0.0021: real time      0.0021
    --------------------------------------------
      LOOP:  cpu time      0.4409: real time      0.4462

 eigenvalue-minimisations  :    96
 total energy-change (2. order) :-0.8932138E-05  (-0.6719962E-07)
 number of electron       2.0000000 magnetization 
 augmentation part        0.0417324 magnetization 

 Broyden mixing:
  rms(total) = 0.34478E-04    rms(broyden)= 0.34056E-04
  rms(prec ) = 0.48558E-04
  weight for this iteration     100.00

 eigenvalues of (default mixing * dielectric matrix)
  average eigenvalue GAMMA=   2.0043
  3.2575  2.4371  2.4371  0.9966  0.8931

 Free energy of the ion-electron system (eV)
  ---------------------------------------------------
  alpha Z        PSCENC =         0.00121808
  Ewald energy   TEWEN  =        15.17917677
  -Hartree energ DENC   =       -31.58508778
  -exchange      EXHF   =         0.00000000
  -V(xc)+E(xc)   XCENC  =         5.19464992
  PAW double counting   =        24.43983532      -24.49317569
  entropy T*S    EENTRO =        -0.00000000
  eigenvalues    EBANDS =       -20.78211707
  atomic energy  EATOM  =        25.06705842
  Solvation  Ediel_sol  =         0.00000000
  ---------------------------------------------------
  free energy    TOTEN  =        -6.97844202 eV

  energy without entropy =       -6.97844202  energy(sigma->0) =       -6.97844202


--------------------------------------------------------------------------------------------------------




--------------------------------------- Iteration      7(   7)  ---------------------------------------


    POTLOK:  cpu time      0.0634: real time      0.0645
    SETDIJ:  cpu time      0.0901: real time      0.0909
     EDDAV:  cpu time      0.3031: real time      0.3064
       DOS:  cpu time      0.0006: real time      0.0006
    CHARGE:  cpu time      0.0548: real time      0.0559
    MIXING:  cpu time      0.0032: real time      0.0032
    --------------------------------------------
      LOOP:  cpu time      0.5151: real time      0.5214

 eigenvalue-minimisations  :   128
 total energy-change (2. order) :-0.2611279E-05  (-0.7784937E-08)
 number of electron       2.0000000 magnetization 
 augmentation part        0.0417324 magnetization 

 Broyden mixing:
  rms(total) = 0.19064E-04    rms(broyden)= 0.18305E-04
  rms(prec ) = 0.31053E-04
  weight for this iteration     100.00

 eigenvalues of (default mixing * dielectric matrix)
  average eigenvalue GAMMA=   2.2669
  4.2710  0.9964  1.0082  2.8562  2.4046  2.0651

 Free energy of the ion-electron system (eV)
  ---------------------------------------------------
  alpha Z        PSCENC =         0.00121808
  Ewald energy   TEWEN  =        15.17917677
  -Hartree energ DENC   =       -31.58504865
  -exchange      EXHF   =         0.00000000
  -V(xc)+E(xc)   XCENC  =         5.19464309
  PAW double counting   =        24.43976998      -24.49311023
  entropy T*S    EENTRO =        -0.00000000
  eigenvalues    EBANDS =       -20.78215211
  atomic energy  EATOM  =        25.06705842
  Solvation  Ediel_sol  =         0.00000000
  ---------------------------------------------------
  free energy    TOTEN  =        -6.97844463 eV

  energy without entropy =       -6.97844463  energy(sigma->0) =       -6.97844463


--------------------------------------------------------------------------------------------------------




--------------------------------------- Iteration      7(   8)  ---------------------------------------


    POTLOK:  cpu time      0.0646: real time      0.0659
    SETDIJ:  cpu time      0.0880: real time      0.0886
     EDDAV:  cpu time      0.1633: real time      0.1652
       DOS:  cpu time      0.0006: real time      0.0011
    CHARGE:  cpu time      0.0546: real time      0.0552
    MIXING:  cpu time      0.0067: real time      0.0068
    --------------------------------------------
      LOOP:  cpu time      0.3779: real time      0.3829

 eigenvalue-minimisations  :    64
 total energy-change (2. order) :-0.4535439E-05  (-0.2743980E-07)
 number of electron       2.0000000 magnetization 
 augmentation part        0.0417324 magnetization 

 Broyden mixing:
  rms(total) = 0.94447E-05    rms(broyden)= 0.78022E-05
  rms(prec ) = 0.13719E-04
  weight for this iteration     100.00
  WARNING: grid for Broyden might be to small

 eigenvalues of (default mixing * dielectric matrix)
  average eigenvalue GAMMA=   2.3011
  4.8390  2.9727  2.3056  2.3056  0.9984  1.0387  1.6479

 Free energy of the ion-electron system (eV)
  ---------------------------------------------------
  alpha Z        PSCENC =         0.00121808
  Ewald energy   TEWEN  =        15.17917677
  -Hartree energ DENC   =       -31.58497347
  -exchange      EXHF   =         0.00000000
  -V(xc)+E(xc)   XCENC  =         5.19463029
  PAW double counting   =        24.43968436      -24.49302411
  entropy T*S    EENTRO =        -0.00000000
  eigenvalues    EBANDS =       -20.78221951
  atomic energy  EATOM  =        25.06705842
  Solvation  Ediel_sol  =         0.00000000
  ---------------------------------------------------
  free energy    TOTEN  =        -6.97844917 eV

  energy without entropy =       -6.97844917  energy(sigma->0) =       -6.97844917


--------------------------------------------------------------------------------------------------------




--------------------------------------- Iteration      7(   9)  ---------------------------------------


    POTLOK:  cpu time      0.0648: real time      0.0660
    SETDIJ:  cpu time      0.0888: real time      0.0895
     EDDAV:  cpu time      0.3993: real time      0.4030
       DOS:  cpu time      0.0004: real time      0.0004
    CHARGE:  cpu time      0.0544: real time      0.0554
    MIXING:  cpu time      0.0023: real time      0.0023
    --------------------------------------------
      LOOP:  cpu time      0.6100: real time      0.6167

 eigenvalue-minimisations  :   128
 total energy-change (2. order) :-0.1348727E-05  (-0.2041464E-08)
 number of electron       2.0000000 magnetization 
 augmentation part        0.0417324 magnetization 

 Broyden mixing:
  rms(total) = 0.65560E-05    rms(broyden)= 0.38305E-05
  rms(prec ) = 0.73693E-05
  weight for this iteration     100.00
  WARNING: grid for Broyden might be to small

 eigenvalues of (default mixing * dielectric matrix)
  average eigenvalue GAMMA=   2.4438
  5.9339  3.3892  2.7629  2.4205  1.9707  0.9939  1.0099  1.0696

 Free energy of the ion-electron system (eV)
  ---------------------------------------------------
  alpha Z        PSCENC =         0.00121808
  Ewald energy   TEWEN  =        15.17917677
  -Hartree energ DENC   =       -31.58497107
  -exchange      EXHF   =         0.00000000
  -V(xc)+E(xc)   XCENC  =         5.19462915
  PAW double counting   =        24.43966522      -24.49300500
  entropy T*S    EENTRO =        -0.00000000
  eigenvalues    EBANDS =       -20.78222209
  atomic energy  EATOM  =        25.06705842
  Solvation  Ediel_sol  =         0.00000000
  ---------------------------------------------------
  free energy    TOTEN  =        -6.97845052 eV

  energy without entropy =       -6.97845052  energy(sigma->0) =       -6.97845052


--------------------------------------------------------------------------------------------------------




--------------------------------------- Iteration      7(  10)  ---------------------------------------


    POTLOK:  cpu time      0.0659: real time      0.0669
    SETDIJ:  cpu time      0.0874: real time      0.0881
     EDDAV:  cpu time      0.2373: real time      0.2400
       DOS:  cpu time      0.0006: real time      0.0006
    CHARGE:  cpu time      0.0541: real time      0.0552
    MIXING:  cpu time      0.0027: real time      0.0027
    --------------------------------------------
      LOOP:  cpu time      0.4479: real time      0.4535

 eigenvalue-minimisations  :    96
 total energy-change (2. order) :-0.6077905E-06  (-0.9005454E-09)
 number of electron       2.0000000 magnetization 
 augmentation part        0.0417324 magnetization 

 Broyden mixing:
  rms(total) = 0.58204E-05    rms(broyden)= 0.23599E-05
  rms(prec ) = 0.41902E-05
  weight for this iteration     100.00
  WARNING: grid for Broyden might be to small

 eigenvalues of (default mixing * dielectric matrix)
  average eigenvalue GAMMA=   2.6976
  7.1621  4.2116  2.8738  2.4820  2.4820  2.0278  0.9806  1.0029  1.0557

 Free energy of the ion-electron system (eV)
  ---------------------------------------------------
  alpha Z        PSCENC =         0.00121808
  Ewald energy   TEWEN  =        15.17917677
  -Hartree energ DENC   =       -31.58497204
  -exchange      EXHF   =         0.00000000
  -V(xc)+E(xc)   XCENC  =         5.19462886
  PAW double counting   =        24.43965100      -24.49299081
  entropy T*S    EENTRO =        -0.00000000
  eigenvalues    EBANDS =       -20.78222141
  atomic energy  EATOM  =        25.06705842
  Solvation  Ediel_sol  =         0.00000000
  ---------------------------------------------------
  free energy    TOTEN  =        -6.97845113 eV

  energy without entropy =       -6.97845113  energy(sigma->0) =       -6.97845113


--------------------------------------------------------------------------------------------------------




--------------------------------------- Iteration      7(  11)  ---------------------------------------


    POTLOK:  cpu time      0.0628: real time      0.0641
    SETDIJ:  cpu time      0.0886: real time      0.0893
     EDDAV:  cpu time      0.2269: real time      0.2295
       DOS:  cpu time      0.0006: real time      0.0007
    CHARGE:  cpu time      0.0543: real time      0.0553
    MIXING:  cpu time      0.0024: real time      0.0025
    --------------------------------------------
      LOOP:  cpu time      0.4357: real time      0.4413

 eigenvalue-minimisations  :    96
 total energy-change (2. order) :-0.3397805E-06  (-0.2884057E-09)
 number of electron       2.0000000 magnetization 
 augmentation part        0.0417324 magnetization 

 Broyden mixing:
  rms(total) = 0.55068E-05    rms(broyden)= 0.14204E-05
  rms(prec ) = 0.20362E-05
  weight for this iteration     100.00
  WARNING: grid for Broyden might be to small

 eigenvalues of (default mixing * dielectric matrix)
  average eigenvalue GAMMA=   2.6562
  7.6624  4.4912  3.1549  2.6891  2.3986  1.8156  0.9746  1.0054  1.0398  1.3308

 Free energy of the ion-electron system (eV)
  ---------------------------------------------------
  alpha Z        PSCENC =         0.00121808
  Ewald energy   TEWEN  =        15.17917677
  -Hartree energ DENC   =       -31.58497216
  -exchange      EXHF   =         0.00000000
  -V(xc)+E(xc)   XCENC  =         5.19462857
  PAW double counting   =        24.43966974      -24.49300956
  entropy T*S    EENTRO =        -0.00000000
  eigenvalues    EBANDS =       -20.78222132
  atomic energy  EATOM  =        25.06705842
  Solvation  Ediel_sol  =         0.00000000
  ---------------------------------------------------
  free energy    TOTEN  =        -6.97845147 eV

  energy without entropy =       -6.97845147  energy(sigma->0) =       -6.97845147


--------------------------------------------------------------------------------------------------------




--------------------------------------- Iteration      7(  12)  ---------------------------------------


    POTLOK:  cpu time      0.0651: real time      0.0657
    SETDIJ:  cpu time      0.0880: real time      0.0887
     EDDAV:  cpu time      0.3043: real time      0.3075
       DOS:  cpu time      0.0006: real time      0.0006
    --------------------------------------------
      LOOP:  cpu time      0.4579: real time      0.4625

 eigenvalue-minimisations  :   128
 total energy-change (2. order) :-0.9095771E-07  (-0.3900524E-10)
 number of electron       2.0000000 magnetization 
 augmentation part        0.0417324 magnetization 

 Free energy of the ion-electron system (eV)
  ---------------------------------------------------
  alpha Z        PSCENC =         0.00121808
  Ewald energy   TEWEN  =        15.17917677
  -Hartree energ DENC   =       -31.58497441
  -exchange      EXHF   =         0.00000000
  -V(xc)+E(xc)   XCENC  =         5.19462882
  PAW double counting   =        24.43967672      -24.49301656
  entropy T*S    EENTRO =        -0.00000000
  eigenvalues    EBANDS =       -20.78221939
  atomic energy  EATOM  =        25.06705842
  Solvation  Ediel_sol  =         0.00000000
  ---------------------------------------------------
  free energy    TOTEN  =        -6.97845156 eV

  energy without entropy =       -6.97845156  energy(sigma->0) =       -6.97845156


--------------------------------------------------------------------------------------------------------




 average (electrostatic) potential at core
  the test charge radii are     0.5201
  (the norm of the test charge is              1.0000)
       1 -41.7985       2 -41.7987



 E-fermi : -10.3210     XC(G=0):  -0.0665     alpha+bet : -0.0069

 val. band max:      -10.3911096961   @ k =   0.0000   0.0000   0.0000
 cond. band min:      -0.0595136840   @ k =   0.0000   0.0000   0.0000
 fundamental gap:     10.3315960121
 Fermi energy:       -10.3209887356

 k-point     1 :       0.0000    0.0000    0.0000
  band No.  band energies     occupation 
      1     -10.3911      2.00000
      2      -0.0595      0.00000
      3       0.1112      0.00000
      4       0.2342      0.00000
      5       0.3102      0.00000
      6       0.3113      0.00000
      7       0.3550      0.00000
      8       0.3563      0.00000
      9       0.4403      0.00000
     10       0.5987      0.00000
     11       0.5992      0.00000
     12       0.6316      0.00000
     13       0.7237      0.00000
     14       0.7265      0.00000
     15       0.7271      0.00000
     16       0.7298      0.00000
     17       0.7338      0.00000
     18       0.7363      0.00000
     19       0.7376      0.00000
     20       0.7388      0.00000
     21       0.8727      0.00000
     22       1.0047      0.00000
     23       1.0061      0.00000
     24       1.0696      0.00000
     25       1.0993      0.00000
     26       1.1004      0.00000
     27       1.1045      0.00000
     28       1.1105      0.00000
     29       1.2036      0.00000
     30       1.3418      0.00000
     31       1.3440      0.00000
     32       1.4603      0.00000


--------------------------------------------------------------------------------------------------------


 soft charge-density along one line, spin component           1
         0         1         2         3         4         5         6         7         8         9
 total charge-density along one line

 pseudopotential strength for first ion, spin component:           1
 -2.344  -4.040  -0.000  -0.000  -0.009
 -4.040  -6.877  -0.000  -0.001  -0.019
 -0.000  -0.000  -0.343  -0.000  -0.000
 -0.000  -0.001  -0.000  -0.343   0.001
 -0.009  -0.019  -0.000   0.001  -0.321
 total augmentation occupancy for first ion, spin component:           1
  3.114  -0.484   0.000   0.010   0.380
 -0.484   0.075  -0.000  -0.002  -0.059
  0.000  -0.000   0.000   0.000   0.000
  0.010  -0.002   0.000   0.000   0.001
  0.380  -0.059   0.000   0.001   0.046


------------------------ aborting loop because EDIFF is reached ----------------------------------------


    CHARGE:  cpu time      0.0574: real time      0.0580
    FORLOC:  cpu time      0.0010: real time      0.0010
    FORNL :  cpu time      0.2430: real time      0.2459
    STRESS:  cpu time      0.8473: real time      0.8576
    FORHAR:  cpu time      0.0154: real time      0.0155
    MIXING:  cpu time      0.0022: real time      0.0022
    OFIELD:  cpu time      0.0000: real time      0.0000

 ---------------------------------------------------------------------------------------------

         DFTD3 V3.0 Rev 1        
 Edisp (eV)   -0.00000

 E6    (eV) :    -0.0000
 E8    (eV) :    -0.0000
 % E8        :  4.58
    FORVDW:  cpu time      0.0078: real time      0.0080

  FORCE on cell =-STRESS in cart. coord.  units (eV):
  Direction    XX          YY          ZZ          XY          YZ          ZX
  --------------------------------------------------------------------------------------
  Alpha Z     0.00122     0.00122     0.00122
  Ewald      17.89132    -1.36296    -1.34917     0.00000     0.00000     0.51500
  Hartree    12.02915     9.77711     9.77872    -0.00000     0.00000     0.06010
  E(xc)      -5.83914    -6.13655    -6.13633     0.00000     0.00000     0.00796
  Local     -31.90571   -18.28698   -18.29674    -0.00000    -0.00000    -0.36400
  n-local    -6.41474    -5.44741    -5.44811    -0.00000     0.00000    -0.02589
  augment     0.20200     0.27233     0.27230    -0.00000     0.00000    -0.00189
  Kinetic    13.87232    21.06333    21.05818     0.00000    -0.00000    -0.19246
  Fock        0.00000     0.00000     0.00000     0.00000     0.00000     0.00000
  vdW         0.00003    -0.00000    -0.00000     0.00000     0.00000     0.00000
  -------------------------------------------------------------------------------------
  Total      -0.16355    -0.11992    -0.11995    -0.00000     0.00000    -0.00117
  in kB      -0.03275    -0.02402    -0.02402    -0.00000     0.00000    -0.00024
  external pressure =       -0.03 kB  Pullay stress =        0.00 kB


 VOLUME and BASIS-vectors are now :
 -----------------------------------------------------------------------------
  energy-cutoff  :      400.00
  volume of cell :     8000.00
      direct lattice vectors                 reciprocal lattice vectors
    20.000000000  0.000000000  0.000000000     0.050000000  0.000000000  0.000000000
     0.000000000 20.000000000  0.000000000     0.000000000  0.050000000  0.000000000
     0.000000000  0.000000000 20.000000000     0.000000000  0.000000000  0.050000000

  length of vectors
    20.000000000 20.000000000 20.000000000     0.050000000  0.050000000  0.050000000


 FORCES acting on ions
    electron-ion (+dipol)            ewald-force                    non-local-force                 convergence-correction
 -----------------------------------------------------------------------------------------------
   0.207E+02 -.764E-08 0.553E+00   -.258E+02 -.509E-08 -.689E+00   0.510E+01 0.585E-07 0.137E+00   -.313E-05 0.163E-07 0.292E-05
   -.207E+02 -.175E-07 -.553E+00   0.258E+02 0.509E-08 0.689E+00   -.510E+01 -.646E-07 -.136E+00   -.434E-05 0.157E-07 0.331E-05
 -----------------------------------------------------------------------------------------------
   0.113E-04 -.252E-07 0.233E-03   0.000E+00 -.168E-18 0.000E+00   -.716E-05 -.604E-08 0.187E-03   -.747E-05 0.320E-07 0.623E-05


 POSITION                                       TOTAL-FORCE (eV/Angst)
 -----------------------------------------------------------------------------------
      9.62636     10.00000      9.98000         0.010686      0.000000      0.000419
     10.37364     10.00000     10.00000        -0.010686     -0.000000     -0.000419
 -----------------------------------------------------------------------------------
    total drift:                               -0.000003      0.000000      0.000426


--------------------------------------------------------------------------------------------------------



  FREE ENERGIE OF THE ION-ELECTRON SYSTEM (eV)
  ---------------------------------------------------
  free  energy   TOTEN  =        -6.97845599 eV

  energy  without entropy=       -6.97845599  energy(sigma->0) =       -6.97845599

 d Force =-0.1824497E-07[-0.167E-04, 0.167E-04]  d Energy =-0.6229470E-07 0.440E-07
 d Force = 0.3998453E-08[ 0.276E-01,-0.276E-01]  d Ewald  = 0.4007056E-08-0.860E-11


--------------------------------------------------------------------------------------------------------


    POTLOK:  cpu time      0.1511: real time      0.1523


--------------------------------------------------------------------------------------------------------


 Finite differences progress:
  Degree of freedom:   3/  6
  Displacement:        2/  2
  Total:               6/ 12
    WAVPRE:  cpu time      0.0046: real time      0.0055
    FEWALD:  cpu time      0.0003: real time      0.0003
    ORTHCH:  cpu time      0.0128: real time      0.0132
     LOOP+:  cpu time      6.8407: real time      6.9256


--------------------------------------- Ionic step        8  -------------------------------------------




--------------------------------------- Iteration      8(   1)  ---------------------------------------


    POTLOK:  cpu time      0.0624: real time      0.0638
    SETDIJ:  cpu time      0.0883: real time      0.0890
     EDDAV:  cpu time      0.1617: real time      0.1635
       DOS:  cpu time      0.0006: real time      0.0006
    CHARGE:  cpu time      0.0537: real time      0.0548
    MIXING:  cpu time      0.0017: real time      0.0017
    --------------------------------------------
      LOOP:  cpu time      0.3683: real time      0.3734

 eigenvalue-minimisations  :    64
 total energy-change (2. order) : 0.5939573E-02  (-0.3102620E-01)
 number of electron       2.0000001 magnetization 
 augmentation part        0.0405629 magnetization 

 Broyden mixing:
  rms(total) = 0.21266E-01    rms(broyden)= 0.21237E-01
  rms(prec ) = 0.22454E-01
  weight for this iteration     100.00

 Free energy of the ion-electron system (eV)
  ---------------------------------------------------
  alpha Z        PSCENC =         0.00121808
  Ewald energy   TEWEN  =        14.68390371
  -Hartree energ DENC   =       -31.41584178
  -exchange      EXHF   =         0.00000000
  -V(xc)+E(xc)   XCENC  =         5.17401934
  PAW double counting   =        24.43966394      -24.49300374
  entropy T*S    EENTRO =        -0.00000000
  eigenvalues    EBANDS =       -20.42952985
  atomic energy  EATOM  =        25.06705842
  Solvation  Ediel_sol  =         0.00000000
  ---------------------------------------------------
  free energy    TOTEN  =        -6.97251189 eV

  energy without entropy =       -6.97251189  energy(sigma->0) =       -6.97251189


--------------------------------------------------------------------------------------------------------




--------------------------------------- Iteration      8(   2)  ---------------------------------------


    POTLOK:  cpu time      0.0657: real time      0.0663
    SETDIJ:  cpu time      0.0880: real time      0.0887
     EDDAV:  cpu time      0.3055: real time      0.3088
       DOS:  cpu time      0.0006: real time      0.0006
    CHARGE:  cpu time      0.0541: real time      0.0552
    MIXING:  cpu time      0.0018: real time      0.0018
    --------------------------------------------
      LOOP:  cpu time      0.5156: real time      0.5214

 eigenvalue-minimisations  :   128
 total energy-change (2. order) : 0.5850851E-03  (-0.1645434E-03)
 number of electron       2.0000001 magnetization 
 augmentation part        0.0406242 magnetization 

 Broyden mixing:
  rms(total) = 0.12256E-01    rms(broyden)= 0.12253E-01
  rms(prec ) = 0.12904E-01
  weight for this iteration     100.00

 eigenvalues of (default mixing * dielectric matrix)
  average eigenvalue GAMMA=   2.2879
  2.2879

 Free energy of the ion-electron system (eV)
  ---------------------------------------------------
  alpha Z        PSCENC =         0.00121808
  Ewald energy   TEWEN  =        14.68390371
  -Hartree energ DENC   =       -31.32973058
  -exchange      EXHF   =         0.00000000
  -V(xc)+E(xc)   XCENC  =         5.16221704
  PAW double counting   =        23.85395014      -23.90600555
  entropy T*S    EENTRO =        -0.00000000
  eigenvalues    EBANDS =       -20.50453808
  atomic energy  EATOM  =        25.06705842
  Solvation  Ediel_sol  =         0.00000000
  ---------------------------------------------------
  free energy    TOTEN  =        -6.97192681 eV

  energy without entropy =       -6.97192681  energy(sigma->0) =       -6.97192681


--------------------------------------------------------------------------------------------------------




--------------------------------------- Iteration      8(   3)  ---------------------------------------


    POTLOK:  cpu time      0.0651: real time      0.0662
    SETDIJ:  cpu time      0.0900: real time      0.0907
     EDDAV:  cpu time      0.1619: real time      0.1638
       DOS:  cpu time      0.0005: real time      0.0005
    CHARGE:  cpu time      0.0544: real time      0.0554
    MIXING:  cpu time      0.0022: real time      0.0028
    --------------------------------------------
      LOOP:  cpu time      0.3742: real time      0.3796

 eigenvalue-minimisations  :    64
 total energy-change (2. order) : 0.1284937E-03  (-0.1059732E-03)
 number of electron       2.0000001 magnetization 
 augmentation part        0.0407091 magnetization 

 Broyden mixing:
  rms(total) = 0.14878E-02    rms(broyden)= 0.14859E-02
  rms(prec ) = 0.16143E-02
  weight for this iteration     100.00

 eigenvalues of (default mixing * dielectric matrix)
  average eigenvalue GAMMA=   1.5322
  0.8715  2.1929

 Free energy of the ion-electron system (eV)
  ---------------------------------------------------
  alpha Z        PSCENC =         0.00121808
  Ewald energy   TEWEN  =        14.68390371
  -Hartree energ DENC   =       -31.22520755
  -exchange      EXHF   =         0.00000000
  -V(xc)+E(xc)   XCENC  =         5.14801382
  PAW double counting   =        23.09969253      -23.15013456
  entropy T*S    EENTRO =        -0.00000000
  eigenvalues    EBANDS =       -20.59634276
  atomic energy  EATOM  =        25.06705842
  Solvation  Ediel_sol  =         0.00000000
  ---------------------------------------------------
  free energy    TOTEN  =        -6.97179831 eV

  energy without entropy =       -6.97179831  energy(sigma->0) =       -6.97179831


--------------------------------------------------------------------------------------------------------




--------------------------------------- Iteration      8(   4)  ---------------------------------------


    POTLOK:  cpu time      0.0640: real time      0.0656
    SETDIJ:  cpu time      0.0905: real time      0.0912
     EDDAV:  cpu time      0.3068: real time      0.3102
       DOS:  cpu time      0.0006: real time      0.0006
    CHARGE:  cpu time      0.0539: real time      0.0550
    MIXING:  cpu time      0.0020: real time      0.0020
    --------------------------------------------
      LOOP:  cpu time      0.5177: real time      0.5245

 eigenvalue-minimisations  :   128
 total energy-change (2. order) :-0.5070734E-05  (-0.1501500E-05)
 number of electron       2.0000001 magnetization 
 augmentation part        0.0407059 magnetization 

 Broyden mixing:
  rms(total) = 0.88274E-03    rms(broyden)= 0.88258E-03
  rms(prec ) = 0.95273E-03
  weight for this iteration     100.00

 eigenvalues of (default mixing * dielectric matrix)
  average eigenvalue GAMMA=   1.8520
  1.0656  2.4968  1.9935

 Free energy of the ion-electron system (eV)
  ---------------------------------------------------
  alpha Z        PSCENC =         0.00121808
  Ewald energy   TEWEN  =        14.68390371
  -Hartree energ DENC   =       -31.23016729
  -exchange      EXHF   =         0.00000000
  -V(xc)+E(xc)   XCENC  =         5.14879120
  PAW double counting   =        23.11322613      -23.16372083
  entropy T*S    EENTRO =        -0.00000000
  eigenvalues    EBANDS =       -20.59211280
  atomic energy  EATOM  =        25.06705842
  Solvation  Ediel_sol  =         0.00000000
  ---------------------------------------------------
  free energy    TOTEN  =        -6.97180339 eV

  energy without entropy =       -6.97180339  energy(sigma->0) =       -6.97180339


--------------------------------------------------------------------------------------------------------




--------------------------------------- Iteration      8(   5)  ---------------------------------------


    POTLOK:  cpu time      0.0647: real time      0.0658
    SETDIJ:  cpu time      0.0877: real time      0.0884
     EDDAV:  cpu time      0.3032: real time      0.3065
       DOS:  cpu time      0.0005: real time      0.0005
    CHARGE:  cpu time      0.0536: real time      0.0546
    MIXING:  cpu time      0.0025: real time      0.0026
    --------------------------------------------
      LOOP:  cpu time      0.5123: real time      0.5185

 eigenvalue-minimisations  :   128
 total energy-change (2. order) :-0.1159468E-04  (-0.9946922E-06)
 number of electron       2.0000001 magnetization 
 augmentation part        0.0407052 magnetization 

 Broyden mixing:
  rms(total) = 0.19489E-03    rms(broyden)= 0.19470E-03
  rms(prec ) = 0.22302E-03
  weight for this iteration     100.00

 eigenvalues of (default mixing * dielectric matrix)
  average eigenvalue GAMMA=   1.7355
  2.4804  2.0993  1.1812  1.1812

 Free energy of the ion-electron system (eV)
  ---------------------------------------------------
  alpha Z        PSCENC =         0.00121808
  Ewald energy   TEWEN  =        14.68390371
  -Hartree energ DENC   =       -31.22960160
  -exchange      EXHF   =         0.00000000
  -V(xc)+E(xc)   XCENC  =         5.14894251
  PAW double counting   =        23.07484694      -23.12530674
  entropy T*S    EENTRO =        -0.00000000
  eigenvalues    EBANDS =       -20.59287630
  atomic energy  EATOM  =        25.06705842
  Solvation  Ediel_sol  =         0.00000000
  ---------------------------------------------------
  free energy    TOTEN  =        -6.97181498 eV

  energy without entropy =       -6.97181498  energy(sigma->0) =       -6.97181498


--------------------------------------------------------------------------------------------------------




--------------------------------------- Iteration      8(   6)  ---------------------------------------


    POTLOK:  cpu time      0.0649: real time      0.0655
    SETDIJ:  cpu time      0.0885: real time      0.0891
     EDDAV:  cpu time      0.1649: real time      0.1668
       DOS:  cpu time      0.0007: real time      0.0013
    CHARGE:  cpu time      0.0534: real time      0.0540
    MIXING:  cpu time      0.0026: real time      0.0026
    --------------------------------------------
      LOOP:  cpu time      0.3750: real time      0.3793

 eigenvalue-minimisations  :    64
 total energy-change (2. order) :-0.3837315E-05  (-0.2809221E-07)
 number of electron       2.0000001 magnetization 
 augmentation part        0.0407050 magnetization 

 Broyden mixing:
  rms(total) = 0.85909E-04    rms(broyden)= 0.85901E-04
  rms(prec ) = 0.11235E-03
  weight for this iteration     100.00

 eigenvalues of (default mixing * dielectric matrix)
  average eigenvalue GAMMA=   1.7865
  1.0142  1.1217  2.7616  1.7877  2.2473

 Free energy of the ion-electron system (eV)
  ---------------------------------------------------
  alpha Z        PSCENC =         0.00121808
  Ewald energy   TEWEN  =        14.68390371
  -Hartree energ DENC   =       -31.22916700
  -exchange      EXHF   =         0.00000000
  -V(xc)+E(xc)   XCENC  =         5.14893113
  PAW double counting   =        23.07522002      -23.12568333
  entropy T*S    EENTRO =        -0.00000000
  eigenvalues    EBANDS =       -20.59329986
  atomic energy  EATOM  =        25.06705842
  Solvation  Ediel_sol  =         0.00000000
  ---------------------------------------------------
  free energy    TOTEN  =        -6.97181882 eV

  energy without entropy =       -6.97181882  energy(sigma->0) =       -6.97181882


--------------------------------------------------------------------------------------------------------




--------------------------------------- Iteration      8(   7)  ---------------------------------------


    POTLOK:  cpu time      0.0646: real time      0.0656
    SETDIJ:  cpu time      0.0879: real time      0.0885
     EDDAV:  cpu time      0.3037: real time      0.3070
       DOS:  cpu time      0.0006: real time      0.0006
    CHARGE:  cpu time      0.0542: real time      0.0552
    MIXING:  cpu time      0.0044: real time      0.0045
    --------------------------------------------
      LOOP:  cpu time      0.5154: real time      0.5214

 eigenvalue-minimisations  :   128
 total energy-change (2. order) :-0.3532861E-05  (-0.3311278E-07)
 number of electron       2.0000001 magnetization 
 augmentation part        0.0407052 magnetization 

 Broyden mixing:
  rms(total) = 0.37500E-04    rms(broyden)= 0.37486E-04
  rms(prec ) = 0.57638E-04
  weight for this iteration     100.00

 eigenvalues of (default mixing * dielectric matrix)
  average eigenvalue GAMMA=   1.9842
  3.5664  2.4740  2.0372  1.6309  0.9953  1.2013

 Free energy of the ion-electron system (eV)
  ---------------------------------------------------
  alpha Z        PSCENC =         0.00121808
  Ewald energy   TEWEN  =        14.68390371
  -Hartree energ DENC   =       -31.22818416
  -exchange      EXHF   =         0.00000000
  -V(xc)+E(xc)   XCENC  =         5.14885384
  PAW double counting   =        23.07441730      -23.12488057
  entropy T*S    EENTRO =        -0.00000000
  eigenvalues    EBANDS =       -20.59420898
  atomic energy  EATOM  =        25.06705842
  Solvation  Ediel_sol  =         0.00000000
  ---------------------------------------------------
  free energy    TOTEN  =        -6.97182235 eV

  energy without entropy =       -6.97182235  energy(sigma->0) =       -6.97182235


--------------------------------------------------------------------------------------------------------




--------------------------------------- Iteration      8(   8)  ---------------------------------------


    POTLOK:  cpu time      0.0641: real time      0.0652
    SETDIJ:  cpu time      0.0884: real time      0.0890
     EDDAV:  cpu time      0.3094: real time      0.3127
       DOS:  cpu time      0.0004: real time      0.0004
    CHARGE:  cpu time      0.0543: real time      0.0554
    MIXING:  cpu time      0.0026: real time      0.0026
    --------------------------------------------
      LOOP:  cpu time      0.5192: real time      0.5253

 eigenvalue-minimisations  :   128
 total energy-change (2. order) :-0.2617246E-05  (-0.2881988E-07)
 number of electron       2.0000001 magnetization 
 augmentation part        0.0407055 magnetization 

 Broyden mixing:
  rms(total) = 0.14100E-04    rms(broyden)= 0.14091E-04
  rms(prec ) = 0.24586E-04
  weight for this iteration     100.00

 eigenvalues of (default mixing * dielectric matrix)
  average eigenvalue GAMMA=   2.0131
  4.0596  2.6297  2.0772  1.0113  1.1634  1.5752  1.5752

 Free energy of the ion-electron system (eV)
  ---------------------------------------------------
  alpha Z        PSCENC =         0.00121808
  Ewald energy   TEWEN  =        14.68390371
  -Hartree energ DENC   =       -31.22709543
  -exchange      EXHF   =         0.00000000
  -V(xc)+E(xc)   XCENC  =         5.14875910
  PAW double counting   =        23.07496596      -23.12543010
  entropy T*S    EENTRO =        -0.00000000
  eigenvalues    EBANDS =       -20.59520473
  atomic energy  EATOM  =        25.06705842
  Solvation  Ediel_sol  =         0.00000000
  ---------------------------------------------------
  free energy    TOTEN  =        -6.97182497 eV

  energy without entropy =       -6.97182497  energy(sigma->0) =       -6.97182497


--------------------------------------------------------------------------------------------------------




--------------------------------------- Iteration      8(   9)  ---------------------------------------


    POTLOK:  cpu time      0.0632: real time      0.0645
    SETDIJ:  cpu time      0.0884: real time      0.0891
     EDDAV:  cpu time      0.3222: real time      0.3259
       DOS:  cpu time      0.0014: real time      0.0014
    CHARGE:  cpu time      0.0925: real time      0.0938
    MIXING:  cpu time      0.0043: real time      0.0043
    --------------------------------------------
      LOOP:  cpu time      0.5718: real time      0.5789

 eigenvalue-minimisations  :   128
 total energy-change (2. order) :-0.9788213E-06  (-0.4700485E-08)
 number of electron       2.0000001 magnetization 
 augmentation part        0.0407056 magnetization 

 Broyden mixing:
  rms(total) = 0.13044E-04    rms(broyden)= 0.13040E-04
  rms(prec ) = 0.18106E-04
  weight for this iteration     100.00

 eigenvalues of (default mixing * dielectric matrix)
  average eigenvalue GAMMA=   2.2313
  5.4427  3.1143  2.4657  2.1048  1.5692  1.2181  0.9895  0.9464

 Free energy of the ion-electron system (eV)
  ---------------------------------------------------
  alpha Z        PSCENC =         0.00121808
  Ewald energy   TEWEN  =        14.68390371
  -Hartree energ DENC   =       -31.22682900
  -exchange      EXHF   =         0.00000000
  -V(xc)+E(xc)   XCENC  =         5.14874234
  PAW double counting   =        23.07546616      -23.12593095
  entropy T*S    EENTRO =        -0.00000000
  eigenvalues    EBANDS =       -20.59545472
  atomic energy  EATOM  =        25.06705842
  Solvation  Ediel_sol  =         0.00000000
  ---------------------------------------------------
  free energy    TOTEN  =        -6.97182595 eV

  energy without entropy =       -6.97182595  energy(sigma->0) =       -6.97182595


--------------------------------------------------------------------------------------------------------




--------------------------------------- Iteration      8(  10)  ---------------------------------------


    POTLOK:  cpu time      0.0699: real time      0.0705
    SETDIJ:  cpu time      0.0887: real time      0.0894
     EDDAV:  cpu time      0.1653: real time      0.1672
       DOS:  cpu time      0.0006: real time      0.0006
    CHARGE:  cpu time      0.0546: real time      0.0556
    MIXING:  cpu time      0.0025: real time      0.0025
    --------------------------------------------
      LOOP:  cpu time      0.3814: real time      0.3857

 eigenvalue-minimisations  :    64
 total energy-change (2. order) :-0.6143622E-06  (-0.2666926E-08)
 number of electron       2.0000001 magnetization 
 augmentation part        0.0407056 magnetization 

 Broyden mixing:
  rms(total) = 0.44171E-05    rms(broyden)= 0.44087E-05
  rms(prec ) = 0.74776E-05
  weight for this iteration     100.00

 eigenvalues of (default mixing * dielectric matrix)
  average eigenvalue GAMMA=   2.4263
  6.2490  3.6339  2.7183  2.3039  2.1582  1.5631  1.2246  0.9929  0.9929

 Free energy of the ion-electron system (eV)
  ---------------------------------------------------
  alpha Z        PSCENC =         0.00121808
  Ewald energy   TEWEN  =        14.68390371
  -Hartree energ DENC   =       -31.22675640
  -exchange      EXHF   =         0.00000000
  -V(xc)+E(xc)   XCENC  =         5.14874572
  PAW double counting   =        23.07536667      -23.12583139
  entropy T*S    EENTRO =        -0.00000000
  eigenvalues    EBANDS =       -20.59553138
  atomic energy  EATOM  =        25.06705842
  Solvation  Ediel_sol  =         0.00000000
  ---------------------------------------------------
  free energy    TOTEN  =        -6.97182656 eV

  energy without entropy =       -6.97182656  energy(sigma->0) =       -6.97182656


--------------------------------------------------------------------------------------------------------




--------------------------------------- Iteration      8(  11)  ---------------------------------------


    POTLOK:  cpu time      0.0673: real time      0.0679
    SETDIJ:  cpu time      0.0874: real time      0.0880
     EDDAV:  cpu time      0.1624: real time      0.1643
       DOS:  cpu time      0.0005: real time      0.0005
    CHARGE:  cpu time      0.0540: real time      0.0552
    MIXING:  cpu time      0.0026: real time      0.0026
    --------------------------------------------
      LOOP:  cpu time      0.3742: real time      0.3784

 eigenvalue-minimisations  :    64
 total energy-change (2. order) :-0.4680796E-06  (-0.1086480E-08)
 number of electron       2.0000001 magnetization 
 augmentation part        0.0407056 magnetization 

 Broyden mixing:
  rms(total) = 0.27396E-05    rms(broyden)= 0.27263E-05
  rms(prec ) = 0.37033E-05
  weight for this iteration     100.00

 eigenvalues of (default mixing * dielectric matrix)
  average eigenvalue GAMMA=   2.4730
  7.2096  4.3024  2.9126  2.4415  2.0728  1.5474  1.2216  0.9954  1.0133  1.0133

 Free energy of the ion-electron system (eV)
  ---------------------------------------------------
  alpha Z        PSCENC =         0.00121808
  Ewald energy   TEWEN  =        14.68390371
  -Hartree energ DENC   =       -31.22674277
  -exchange      EXHF   =         0.00000000
  -V(xc)+E(xc)   XCENC  =         5.14874899
  PAW double counting   =        23.07525149      -23.12571586
  entropy T*S    EENTRO =        -0.00000000
  eigenvalues    EBANDS =       -20.59554909
  atomic energy  EATOM  =        25.06705842
  Solvation  Ediel_sol  =         0.00000000
  ---------------------------------------------------
  free energy    TOTEN  =        -6.97182703 eV

  energy without entropy =       -6.97182703  energy(sigma->0) =       -6.97182703


--------------------------------------------------------------------------------------------------------




--------------------------------------- Iteration      8(  12)  ---------------------------------------


    POTLOK:  cpu time      0.0669: real time      0.0676
    SETDIJ:  cpu time      0.0874: real time      0.0881
     EDDAV:  cpu time      0.3041: real time      0.3073
       DOS:  cpu time      0.0006: real time      0.0006
    --------------------------------------------
      LOOP:  cpu time      0.4591: real time      0.4635

 eigenvalue-minimisations  :   128
 total energy-change (2. order) :-0.9268845E-07  (-0.5639578E-10)
 number of electron       2.0000001 magnetization 
 augmentation part        0.0407056 magnetization 

 Free energy of the ion-electron system (eV)
  ---------------------------------------------------
  alpha Z        PSCENC =         0.00121808
  Ewald energy   TEWEN  =        14.68390371
  -Hartree energ DENC   =       -31.22675123
  -exchange      EXHF   =         0.00000000
  -V(xc)+E(xc)   XCENC  =         5.14875138
  PAW double counting   =        23.07531090      -23.12577542
  entropy T*S    EENTRO =        -0.00000000
  eigenvalues    EBANDS =       -20.59554296
  atomic energy  EATOM  =        25.06705842
  Solvation  Ediel_sol  =         0.00000000
  ---------------------------------------------------
  free energy    TOTEN  =        -6.97182712 eV

  energy without entropy =       -6.97182712  energy(sigma->0) =       -6.97182712


--------------------------------------------------------------------------------------------------------




 average (electrostatic) potential at core
  the test charge radii are     0.5201
  (the norm of the test charge is              1.0000)
       1 -41.6853       2 -41.6862



 E-fermi : -10.2282     XC(G=0):  -0.0678     alpha+bet : -0.0069

 val. band max:      -10.2977714800   @ k =   0.0000   0.0000   0.0000
 cond. band min:      -0.0622058487   @ k =   0.0000   0.0000   0.0000
 fundamental gap:     10.2355656313
 Fermi energy:       -10.2282058263

 k-point     1 :       0.0000    0.0000    0.0000
  band No.  band energies     occupation 
      1     -10.2978      2.00000
      2      -0.0622      0.00000
      3       0.0654      0.00000
      4       0.2284      0.00000
      5       0.3073      0.00000
      6       0.3082      0.00000
      7       0.3540      0.00000
      8       0.3566      0.00000
      9       0.4313      0.00000
     10       0.5934      0.00000
     11       0.5939      0.00000
     12       0.6341      0.00000
     13       0.7189      0.00000
     14       0.7250      0.00000
     15       0.7289      0.00000
     16       0.7296      0.00000
     17       0.7359      0.00000
     18       0.7377      0.00000
     19       0.7420      0.00000
     20       0.7422      0.00000
     21       0.8545      0.00000
     22       1.0022      0.00000
     23       1.0032      0.00000
     24       1.0631      0.00000
     25       1.0970      0.00000
     26       1.0984      0.00000
     27       1.1068      0.00000
     28       1.1153      0.00000
     29       1.1923      0.00000
     30       1.3440      0.00000
     31       1.3459      0.00000
     32       1.4598      0.00000


--------------------------------------------------------------------------------------------------------


 soft charge-density along one line, spin component           1
         0         1         2         3         4         5         6         7         8         9
 total charge-density along one line

 pseudopotential strength for first ion, spin component:           1
 -2.344  -4.039  -0.000   0.000  -0.008
 -4.039  -6.875   0.000   0.000  -0.017
 -0.000   0.000  -0.344  -0.000  -0.000
  0.000   0.000  -0.000  -0.344  -0.000
 -0.008  -0.017  -0.000  -0.000  -0.324
 total augmentation occupancy for first ion, spin component:           1
  3.070  -0.483   0.000  -0.000   0.357
 -0.483   0.076  -0.000   0.000  -0.056
  0.000  -0.000   0.000  -0.000   0.000
 -0.000   0.000  -0.000   0.000  -0.000
  0.357  -0.056   0.000  -0.000   0.041


------------------------ aborting loop because EDIFF is reached ----------------------------------------


    CHARGE:  cpu time      0.0576: real time      0.0583
    FORLOC:  cpu time      0.0010: real time      0.0010
    FORNL :  cpu time      0.2429: real time      0.2459
    STRESS:  cpu time      0.8434: real time      0.8533
    FORHAR:  cpu time      0.0154: real time      0.0155
    MIXING:  cpu time      0.0022: real time      0.0022
    OFIELD:  cpu time      0.0000: real time      0.0000

 ---------------------------------------------------------------------------------------------

         DFTD3 V3.0 Rev 1        
 Edisp (eV)   -0.00001

 E6    (eV) :    -0.0000
 E8    (eV) :    -0.0000
 % E8        :  4.67
    FORVDW:  cpu time      0.0078: real time      0.0079

  FORCE on cell =-STRESS in cart. coord.  units (eV):
  Direction    XX          YY          ZZ          XY          YZ          ZX
  --------------------------------------------------------------------------------------
  Alpha Z     0.00122     0.00122     0.00122
  Ewald      17.40994    -1.36302    -1.36302     0.00000     0.00000     0.00000
  Hartree    11.94893     9.63890     9.63890     0.00000     0.00000    -0.00000
  E(xc)      -5.78215    -6.08298    -6.08298    -0.00000    -0.00000     0.00000
  Local     -31.75169   -18.04349   -18.04349    -0.00000    -0.00000     0.00000
  n-local    -6.23191    -5.33026    -5.33026    -0.00000    -0.00000    -0.00000
  augment     0.20286     0.26456     0.26457    -0.00000     0.00000     0.00000
  Kinetic    13.55155    20.79691    20.79691    -0.00000    -0.00000     0.00000
  Fock        0.00000     0.00000     0.00000     0.00000     0.00000     0.00000
  vdW         0.00004    -0.00000    -0.00000     0.00000     0.00000     0.00000
  -------------------------------------------------------------------------------------
  Total      -0.65122    -0.11816    -0.11815    -0.00000     0.00000     0.00000
  in kB      -0.13042    -0.02366    -0.02366    -0.00000     0.00000     0.00000
  external pressure =       -0.06 kB  Pullay stress =        0.00 kB


 VOLUME and BASIS-vectors are now :
 -----------------------------------------------------------------------------
  energy-cutoff  :      400.00
  volume of cell :     8000.00
      direct lattice vectors                 reciprocal lattice vectors
    20.000000000  0.000000000  0.000000000     0.050000000  0.000000000  0.000000000
     0.000000000 20.000000000  0.000000000     0.000000000  0.050000000  0.000000000
     0.000000000  0.000000000 20.000000000     0.000000000  0.000000000  0.050000000

  length of vectors
    20.000000000 20.000000000 20.000000000     0.050000000  0.050000000  0.050000000


 FORCES acting on ions
    electron-ion (+dipol)            ewald-force                    non-local-force                 convergence-correction
 -----------------------------------------------------------------------------------------------
   0.203E+02 0.357E-08 -.185E-06   -.245E+02 -.471E-08 -.926E-07   0.483E+01 0.315E-07 0.111E-05   -.112E-05 0.469E-09 -.163E-05
   -.203E+02 -.466E-08 -.395E-06   0.245E+02 0.471E-08 0.926E-07   -.483E+01 -.684E-08 -.289E-06   -.279E-05 0.383E-09 -.877E-06
 -----------------------------------------------------------------------------------------------
   -.773E-04 -.109E-08 -.580E-06   0.000E+00 -.169E-18 0.317E-18   -.656E-04 0.246E-07 0.816E-06   -.391E-05 0.852E-09 -.251E-05


 POSITION                                       TOTAL-FORCE (eV/Angst)
 -----------------------------------------------------------------------------------
      9.62636     10.00000     10.00000         0.647271      0.000000      0.000000
     10.39364     10.00000     10.00000        -0.647271     -0.000000     -0.000000
 -----------------------------------------------------------------------------------
    total drift:                               -0.000147      0.000000     -0.000002


--------------------------------------------------------------------------------------------------------



  FREE ENERGIE OF THE ION-ELECTRON SYSTEM (eV)
  ---------------------------------------------------
  free  energy   TOTEN  =        -6.97183256 eV

  energy  without entropy=       -6.97183256  energy(sigma->0) =       -6.97183256

 d Force =-0.6575375E-02[-0.129E-01,-0.205E-03]  d Energy =-0.6623434E-02 0.481E-04
 d Force = 0.4951753E+00[ 0.489E+00, 0.501E+00]  d Ewald  = 0.4952731E+00-0.977E-04


--------------------------------------------------------------------------------------------------------


    POTLOK:  cpu time      0.1509: real time      0.1521


--------------------------------------------------------------------------------------------------------


 Finite differences progress:
  Degree of freedom:   4/  6
  Displacement:        1/  2
  Total:               7/ 12
    WAVPRE:  cpu time      0.0042: real time      0.0055
    FEWALD:  cpu time      0.0003: real time      0.0003
    ORTHCH:  cpu time      0.0130: real time      0.0134
     LOOP+:  cpu time      6.9159: real time      7.0002


--------------------------------------- Ionic step        9  -------------------------------------------




--------------------------------------- Iteration      9(   1)  ---------------------------------------


    POTLOK:  cpu time      0.0607: real time      0.0622
    SETDIJ:  cpu time      0.0884: real time      0.0891
     EDDAV:  cpu time      0.1621: real time      0.1640
       DOS:  cpu time      0.0006: real time      0.0006
    CHARGE:  cpu time      0.0543: real time      0.0554
    MIXING:  cpu time      0.0018: real time      0.0018
    --------------------------------------------
      LOOP:  cpu time      0.3680: real time      0.3731

 eigenvalue-minimisations  :    64
 total energy-change (2. order) :-0.2229431E-02  (-0.6930125E-01)
 number of electron       2.0000001 magnetization 
 augmentation part        0.0430972 magnetization 

 Broyden mixing:
  rms(total) = 0.38403E-01    rms(broyden)= 0.38354E-01
  rms(prec ) = 0.40545E-01
  weight for this iteration     100.00

 Free energy of the ion-electron system (eV)
  ---------------------------------------------------
  alpha Z        PSCENC =         0.00121808
  Ewald energy   TEWEN  =        15.71587062
  -Hartree energ DENC   =       -31.56124511
  -exchange      EXHF   =         0.00000000
  -V(xc)+E(xc)   XCENC  =         5.19010630
  PAW double counting   =        23.07535508      -23.12581975
  entropy T*S    EENTRO =        -0.00000000
  eigenvalues    EBANDS =       -21.33660011
  atomic energy  EATOM  =        25.06705842
  Solvation  Ediel_sol  =         0.00000000
  ---------------------------------------------------
  free energy    TOTEN  =        -6.97405646 eV

  energy without entropy =       -6.97405646  energy(sigma->0) =       -6.97405646


--------------------------------------------------------------------------------------------------------




--------------------------------------- Iteration      9(   2)  ---------------------------------------


    POTLOK:  cpu time      0.0628: real time      0.0645
    SETDIJ:  cpu time      0.0877: real time      0.0883
     EDDAV:  cpu time      0.2290: real time      0.2318
       DOS:  cpu time      0.0004: real time      0.0004
    CHARGE:  cpu time      0.0551: real time      0.0561
    MIXING:  cpu time      0.0018: real time      0.0018
    --------------------------------------------
      LOOP:  cpu time      0.4368: real time      0.4430

 eigenvalue-minimisations  :    96
 total energy-change (2. order) : 0.2153238E-02  (-0.4510416E-03)
 number of electron       2.0000001 magnetization 
 augmentation part        0.0430527 magnetization 

 Broyden mixing:
  rms(total) = 0.22642E-01    rms(broyden)= 0.22637E-01
  rms(prec ) = 0.23871E-01
  weight for this iteration     100.00

 eigenvalues of (default mixing * dielectric matrix)
  average eigenvalue GAMMA=   2.3655
  2.3655

 Free energy of the ion-electron system (eV)
  ---------------------------------------------------
  alpha Z        PSCENC =         0.00121808
  Ewald energy   TEWEN  =        15.71587062
  -Hartree energ DENC   =       -31.73509593
  -exchange      EXHF   =         0.00000000
  -V(xc)+E(xc)   XCENC  =         5.21362204
  PAW double counting   =        24.28226425      -24.33536374
  entropy T*S    EENTRO =        -0.00000000
  eigenvalues    EBANDS =       -21.18147695
  atomic energy  EATOM  =        25.06705842
  Solvation  Ediel_sol  =         0.00000000
  ---------------------------------------------------
  free energy    TOTEN  =        -6.97190322 eV

  energy without entropy =       -6.97190322  energy(sigma->0) =       -6.97190322


--------------------------------------------------------------------------------------------------------




--------------------------------------- Iteration      9(   3)  ---------------------------------------


    POTLOK:  cpu time      0.0651: real time      0.0657
    SETDIJ:  cpu time      0.0882: real time      0.0888
     EDDAV:  cpu time      0.3029: real time      0.3062
       DOS:  cpu time      0.0006: real time      0.0006
    CHARGE:  cpu time      0.0540: real time      0.0551
    MIXING:  cpu time      0.0021: real time      0.0021
    --------------------------------------------
      LOOP:  cpu time      0.5129: real time      0.5185

 eigenvalue-minimisations  :   128
 total energy-change (2. order) : 0.6735198E-03  (-0.4339050E-03)
 number of electron       2.0000001 magnetization 
 augmentation part        0.0428535 magnetization 

 Broyden mixing:
  rms(total) = 0.36217E-02    rms(broyden)= 0.36186E-02
  rms(prec ) = 0.38853E-02
  weight for this iteration     100.00

 eigenvalues of (default mixing * dielectric matrix)
  average eigenvalue GAMMA=   1.4984
  0.8286  2.1682

 Free energy of the ion-electron system (eV)
  ---------------------------------------------------
  alpha Z        PSCENC =         0.00121808
  Ewald energy   TEWEN  =        15.71587062
  -Hartree energ DENC   =       -31.97552131
  -exchange      EXHF   =         0.00000000
  -V(xc)+E(xc)   XCENC  =         5.24609339
  PAW double counting   =        25.95512752      -26.01195899
  entropy T*S    EENTRO =        -0.00000000
  eigenvalues    EBANDS =       -20.96911743
  atomic energy  EATOM  =        25.06705842
  Solvation  Ediel_sol  =         0.00000000
  ---------------------------------------------------
  free energy    TOTEN  =        -6.97122970 eV

  energy without entropy =       -6.97122970  energy(sigma->0) =       -6.97122970


--------------------------------------------------------------------------------------------------------




--------------------------------------- Iteration      9(   4)  ---------------------------------------


    POTLOK:  cpu time      0.0654: real time      0.0665
    SETDIJ:  cpu time      0.0874: real time      0.0880
     EDDAV:  cpu time      0.1641: real time      0.1662
       DOS:  cpu time      0.0006: real time      0.0006
    CHARGE:  cpu time      0.0541: real time      0.0552
    MIXING:  cpu time      0.0020: real time      0.0020
    --------------------------------------------
      LOOP:  cpu time      0.3736: real time      0.3784

 eigenvalue-minimisations  :    64
 total energy-change (2. order) : 0.1013115E-04  (-0.6061845E-05)
 number of electron       2.0000001 magnetization 
 augmentation part        0.0428721 magnetization 

 Broyden mixing:
  rms(total) = 0.12970E-02    rms(broyden)= 0.12969E-02
  rms(prec ) = 0.14076E-02
  weight for this iteration     100.00

 eigenvalues of (default mixing * dielectric matrix)
  average eigenvalue GAMMA=   1.8264
  0.9878  2.4625  2.0290

 Free energy of the ion-electron system (eV)
  ---------------------------------------------------
  alpha Z        PSCENC =         0.00121808
  Ewald energy   TEWEN  =        15.71587062
  -Hartree energ DENC   =       -31.95419835
  -exchange      EXHF   =         0.00000000
  -V(xc)+E(xc)   XCENC  =         5.24295532
  PAW double counting   =        25.84689603      -25.90343658
  entropy T*S    EENTRO =        -0.00000000
  eigenvalues    EBANDS =       -20.98758311
  atomic energy  EATOM  =        25.06705842
  Solvation  Ediel_sol  =         0.00000000
  ---------------------------------------------------
  free energy    TOTEN  =        -6.97121957 eV

  energy without entropy =       -6.97121957  energy(sigma->0) =       -6.97121957


--------------------------------------------------------------------------------------------------------




--------------------------------------- Iteration      9(   5)  ---------------------------------------


    POTLOK:  cpu time      0.0645: real time      0.0660
    SETDIJ:  cpu time      0.0879: real time      0.0885
     EDDAV:  cpu time      0.3067: real time      0.3099
       DOS:  cpu time      0.0010: real time      0.0010
    CHARGE:  cpu time      0.0556: real time      0.0567
    MIXING:  cpu time      0.0022: real time      0.0023
    --------------------------------------------
      LOOP:  cpu time      0.5179: real time      0.5244

 eigenvalue-minimisations  :   128
 total energy-change (2. order) :-0.2333349E-04  (-0.2205333E-05)
 number of electron       2.0000001 magnetization 
 augmentation part        0.0428734 magnetization 

 Broyden mixing:
  rms(total) = 0.28829E-03    rms(broyden)= 0.28780E-03
  rms(prec ) = 0.34098E-03
  weight for this iteration     100.00

 eigenvalues of (default mixing * dielectric matrix)
  average eigenvalue GAMMA=   1.9248
  1.0251  2.4439  2.4439  1.7863

 Free energy of the ion-electron system (eV)
  ---------------------------------------------------
  alpha Z        PSCENC =         0.00121808
  Ewald energy   TEWEN  =        15.71587062
  -Hartree energ DENC   =       -31.95625730
  -exchange      EXHF   =         0.00000000
  -V(xc)+E(xc)   XCENC  =         5.24270332
  PAW double counting   =        25.92853567      -25.98516671
  entropy T*S    EENTRO =        -0.00000000
  eigenvalues    EBANDS =       -20.98520500
  atomic energy  EATOM  =        25.06705842
  Solvation  Ediel_sol  =         0.00000000
  ---------------------------------------------------
  free energy    TOTEN  =        -6.97124290 eV

  energy without entropy =       -6.97124290  energy(sigma->0) =       -6.97124290


--------------------------------------------------------------------------------------------------------




--------------------------------------- Iteration      9(   6)  ---------------------------------------


    POTLOK:  cpu time      0.0698: real time      0.0718
    SETDIJ:  cpu time      0.0906: real time      0.0913
     EDDAV:  cpu time      0.1611: real time      0.1631
       DOS:  cpu time      0.0005: real time      0.0010
    CHARGE:  cpu time      0.0541: real time      0.0547
    MIXING:  cpu time      0.0021: real time      0.0021
    --------------------------------------------
      LOOP:  cpu time      0.3781: real time      0.3841

 eigenvalue-minimisations  :    64
 total energy-change (2. order) :-0.1386999E-04  (-0.8839897E-07)
 number of electron       2.0000001 magnetization 
 augmentation part        0.0428740 magnetization 

 Broyden mixing:
  rms(total) = 0.10878E-03    rms(broyden)= 0.10874E-03
  rms(prec ) = 0.15489E-03
  weight for this iteration     100.00

 eigenvalues of (default mixing * dielectric matrix)
  average eigenvalue GAMMA=   1.7933
  0.9702  1.0341  2.8565  1.8523  2.2534

 Free energy of the ion-electron system (eV)
  ---------------------------------------------------
  alpha Z        PSCENC =         0.00121808
  Ewald energy   TEWEN  =        15.71587062
  -Hartree energ DENC   =       -31.95735054
  -exchange      EXHF   =         0.00000000
  -V(xc)+E(xc)   XCENC  =         5.24268277
  PAW double counting   =        25.92376743      -25.98038187
  entropy T*S    EENTRO =        -0.00000000
  eigenvalues    EBANDS =       -20.98412169
  atomic energy  EATOM  =        25.06705842
  Solvation  Ediel_sol  =         0.00000000
  ---------------------------------------------------
  free energy    TOTEN  =        -6.97125677 eV

  energy without entropy =       -6.97125677  energy(sigma->0) =       -6.97125677


--------------------------------------------------------------------------------------------------------




--------------------------------------- Iteration      9(   7)  ---------------------------------------


    POTLOK:  cpu time      0.0634: real time      0.0644
    SETDIJ:  cpu time      0.0910: real time      0.0918
     EDDAV:  cpu time      0.3032: real time      0.3066
       DOS:  cpu time      0.0005: real time      0.0005
    CHARGE:  cpu time      0.0548: real time      0.0559
    MIXING:  cpu time      0.0021: real time      0.0021
    --------------------------------------------
      LOOP:  cpu time      0.5150: real time      0.5213

 eigenvalue-minimisations  :   128
 total energy-change (2. order) :-0.6987759E-05  (-0.2623604E-07)
 number of electron       2.0000001 magnetization 
 augmentation part        0.0428732 magnetization 

 Broyden mixing:
  rms(total) = 0.47956E-04    rms(broyden)= 0.47951E-04
  rms(prec ) = 0.89710E-04
  weight for this iteration     100.00

 eigenvalues of (default mixing * dielectric matrix)
  average eigenvalue GAMMA=   2.1554
  4.1624  2.6690  0.9860  1.0521  2.2175  1.8452

 Free energy of the ion-electron system (eV)
  ---------------------------------------------------
  alpha Z        PSCENC =         0.00121808
  Ewald energy   TEWEN  =        15.71587062
  -Hartree energ DENC   =       -31.95939890
  -exchange      EXHF   =         0.00000000
  -V(xc)+E(xc)   XCENC  =         5.24286885
  PAW double counting   =        25.93096478      -25.98759247
  entropy T*S    EENTRO =        -0.00000000
  eigenvalues    EBANDS =       -20.98225314
  atomic energy  EATOM  =        25.06705842
  Solvation  Ediel_sol  =         0.00000000
  ---------------------------------------------------
  free energy    TOTEN  =        -6.97126376 eV

  energy without entropy =       -6.97126376  energy(sigma->0) =       -6.97126376


--------------------------------------------------------------------------------------------------------




--------------------------------------- Iteration      9(   8)  ---------------------------------------


    POTLOK:  cpu time      0.0644: real time      0.0657
    SETDIJ:  cpu time      0.0884: real time      0.0891
     EDDAV:  cpu time      0.1623: real time      0.1642
       DOS:  cpu time      0.0006: real time      0.0006
    CHARGE:  cpu time      0.0544: real time      0.0554
    MIXING:  cpu time      0.0023: real time      0.0023
    --------------------------------------------
      LOOP:  cpu time      0.3724: real time      0.3774

 eigenvalue-minimisations  :    64
 total energy-change (2. order) :-0.1343787E-04  (-0.9770575E-07)
 number of electron       2.0000001 magnetization 
 augmentation part        0.0428722 magnetization 

 Broyden mixing:
  rms(total) = 0.29773E-04    rms(broyden)= 0.29759E-04
  rms(prec ) = 0.42297E-04
  weight for this iteration     100.00

 eigenvalues of (default mixing * dielectric matrix)
  average eigenvalue GAMMA=   2.0882
  4.4427  2.6678  0.9948  1.0370  1.9897  1.7427  1.7427

 Free energy of the ion-electron system (eV)
  ---------------------------------------------------
  alpha Z        PSCENC =         0.00121808
  Ewald energy   TEWEN  =        15.71587062
  -Hartree energ DENC   =       -31.96218150
  -exchange      EXHF   =         0.00000000
  -V(xc)+E(xc)   XCENC  =         5.24310068
  PAW double counting   =        25.92834476      -25.98497055
  entropy T*S    EENTRO =        -0.00000000
  eigenvalues    EBANDS =       -20.97971771
  atomic energy  EATOM  =        25.06705842
  Solvation  Ediel_sol  =         0.00000000
  ---------------------------------------------------
  free energy    TOTEN  =        -6.97127720 eV

  energy without entropy =       -6.97127720  energy(sigma->0) =       -6.97127720


--------------------------------------------------------------------------------------------------------




--------------------------------------- Iteration      9(   9)  ---------------------------------------


    POTLOK:  cpu time      0.0677: real time      0.0688
    SETDIJ:  cpu time      0.0887: real time      0.0895
     EDDAV:  cpu time      0.3124: real time      0.3172
       DOS:  cpu time      0.0007: real time      0.0007
    CHARGE:  cpu time      0.0537: real time      0.0547
    MIXING:  cpu time      0.0029: real time      0.0029
    --------------------------------------------
      LOOP:  cpu time      0.5260: real time      0.5338

 eigenvalue-minimisations  :   128
 total energy-change (2. order) :-0.3131473E-05  (-0.3477457E-08)
 number of electron       2.0000001 magnetization 
 augmentation part        0.0428723 magnetization 

 Broyden mixing:
  rms(total) = 0.28258E-04    rms(broyden)= 0.28257E-04
  rms(prec ) = 0.36021E-04
  weight for this iteration     100.00

 eigenvalues of (default mixing * dielectric matrix)
  average eigenvalue GAMMA=   2.4229
  6.0661  3.6842  2.6674  2.1144  1.7376  0.9993  0.9993  1.1146

 Free energy of the ion-electron system (eV)
  ---------------------------------------------------
  alpha Z        PSCENC =         0.00121808
  Ewald energy   TEWEN  =        15.71587062
  -Hartree energ DENC   =       -31.96191358
  -exchange      EXHF   =         0.00000000
  -V(xc)+E(xc)   XCENC  =         5.24303866
  PAW double counting   =        25.92666751      -25.98328841
  entropy T*S    EENTRO =        -0.00000000
  eigenvalues    EBANDS =       -20.97993163
  atomic energy  EATOM  =        25.06705842
  Solvation  Ediel_sol  =         0.00000000
  ---------------------------------------------------
  free energy    TOTEN  =        -6.97128033 eV

  energy without entropy =       -6.97128033  energy(sigma->0) =       -6.97128033


--------------------------------------------------------------------------------------------------------




--------------------------------------- Iteration      9(  10)  ---------------------------------------


    POTLOK:  cpu time      0.0655: real time      0.0661
    SETDIJ:  cpu time      0.0881: real time      0.0888
     EDDAV:  cpu time      0.1594: real time      0.1613
       DOS:  cpu time      0.0006: real time      0.0006
    CHARGE:  cpu time      0.0525: real time      0.0535
    MIXING:  cpu time      0.0036: real time      0.0036
    --------------------------------------------
      LOOP:  cpu time      0.3697: real time      0.3740

 eigenvalue-minimisations  :    64
 total energy-change (2. order) :-0.5093485E-05  (-0.2310949E-07)
 number of electron       2.0000001 magnetization 
 augmentation part        0.0428722 magnetization 

 Broyden mixing:
  rms(total) = 0.10436E-04    rms(broyden)= 0.10434E-04
  rms(prec ) = 0.13235E-04
  weight for this iteration     100.00

 eigenvalues of (default mixing * dielectric matrix)
  average eigenvalue GAMMA=   2.3628
  6.2248  3.5129  2.4192  2.4192  1.9948  1.4377  0.9876  1.0282  1.2410

 Free energy of the ion-electron system (eV)
  ---------------------------------------------------
  alpha Z        PSCENC =         0.00121808
  Ewald energy   TEWEN  =        15.71587062
  -Hartree energ DENC   =       -31.96209971
  -exchange      EXHF   =         0.00000000
  -V(xc)+E(xc)   XCENC  =         5.24303209
  PAW double counting   =        25.92848885      -25.98511288
  entropy T*S    EENTRO =        -0.00000000
  eigenvalues    EBANDS =       -20.97974090
  atomic energy  EATOM  =        25.06705842
  Solvation  Ediel_sol  =         0.00000000
  ---------------------------------------------------
  free energy    TOTEN  =        -6.97128543 eV

  energy without entropy =       -6.97128543  energy(sigma->0) =       -6.97128543


--------------------------------------------------------------------------------------------------------




--------------------------------------- Iteration      9(  11)  ---------------------------------------


    POTLOK:  cpu time      0.0654: real time      0.0660
    SETDIJ:  cpu time      0.0885: real time      0.0892
     EDDAV:  cpu time      0.3032: real time      0.3069
       DOS:  cpu time      0.0005: real time      0.0005
    CHARGE:  cpu time      0.0542: real time      0.0552
    MIXING:  cpu time      0.0044: real time      0.0044
    --------------------------------------------
      LOOP:  cpu time      0.5162: real time      0.5224

 eigenvalue-minimisations  :   128
 total energy-change (2. order) :-0.1357927E-05  (-0.1482679E-08)
 number of electron       2.0000001 magnetization 
 augmentation part        0.0428721 magnetization 

 Broyden mixing:
  rms(total) = 0.48803E-05    rms(broyden)= 0.48778E-05
  rms(prec ) = 0.69045E-05
  weight for this iteration     100.00

 eigenvalues of (default mixing * dielectric matrix)
  average eigenvalue GAMMA=   2.5720
  7.4781  4.5954  3.1921  2.6355  2.1000  1.7498  1.0990  0.9970  0.9970  0.8762

 Free energy of the ion-electron system (eV)
  ---------------------------------------------------
  alpha Z        PSCENC =         0.00121808
  Ewald energy   TEWEN  =        15.71587062
  -Hartree energ DENC   =       -31.96219895
  -exchange      EXHF   =         0.00000000
  -V(xc)+E(xc)   XCENC  =         5.24304116
  PAW double counting   =        25.92792268      -25.98454656
  entropy T*S    EENTRO =        -0.00000000
  eigenvalues    EBANDS =       -20.97965223
  atomic energy  EATOM  =        25.06705842
  Solvation  Ediel_sol  =         0.00000000
  ---------------------------------------------------
  free energy    TOTEN  =        -6.97128678 eV

  energy without entropy =       -6.97128678  energy(sigma->0) =       -6.97128678


--------------------------------------------------------------------------------------------------------




--------------------------------------- Iteration      9(  12)  ---------------------------------------


    POTLOK:  cpu time      0.0648: real time      0.0655
    SETDIJ:  cpu time      0.0877: real time      0.0883
     EDDAV:  cpu time      0.3889: real time      0.3926
       DOS:  cpu time      0.0174: real time      0.0175
    CHARGE:  cpu time      0.0792: real time      0.0804
    MIXING:  cpu time      0.0179: real time      0.0181
    --------------------------------------------
      LOOP:  cpu time      0.6559: real time      0.6624

 eigenvalue-minimisations  :   128
 total energy-change (2. order) :-0.7681095E-06  (-0.1444718E-08)
 number of electron       2.0000001 magnetization 
 augmentation part        0.0428721 magnetization 

 Broyden mixing:
  rms(total) = 0.39737E-05    rms(broyden)= 0.39727E-05
  rms(prec ) = 0.46909E-05
  weight for this iteration     100.00

 eigenvalues of (default mixing * dielectric matrix)
  average eigenvalue GAMMA=   2.7940
  8.1218  5.2788  3.9014  2.9615  2.5342  2.0904  1.7629  1.0834  1.0001  1.0001
  0.9994

 Free energy of the ion-electron system (eV)
  ---------------------------------------------------
  alpha Z        PSCENC =         0.00121808
  Ewald energy   TEWEN  =        15.71587062
  -Hartree energ DENC   =       -31.96218464
  -exchange      EXHF   =         0.00000000
  -V(xc)+E(xc)   XCENC  =         5.24303456
  PAW double counting   =        25.92778806      -25.98441173
  entropy T*S    EENTRO =        -0.00000000
  eigenvalues    EBANDS =       -20.97966092
  atomic energy  EATOM  =        25.06705842
  Solvation  Ediel_sol  =         0.00000000
  ---------------------------------------------------
  free energy    TOTEN  =        -6.97128755 eV

  energy without entropy =       -6.97128755  energy(sigma->0) =       -6.97128755


--------------------------------------------------------------------------------------------------------




--------------------------------------- Iteration      9(  13)  ---------------------------------------


    POTLOK:  cpu time      0.2108: real time      0.2121
    SETDIJ:  cpu time      0.1524: real time      0.1534
     EDDAV:  cpu time      0.7888: real time      0.7943
       DOS:  cpu time      0.0044: real time      0.0044
    CHARGE:  cpu time      0.1149: real time      0.1162
    MIXING:  cpu time      0.0205: real time      0.0205
    --------------------------------------------
      LOOP:  cpu time      1.2917: real time      1.3009

 eigenvalue-minimisations  :   128
 total energy-change (2. order) :-0.3236031E-06  (-0.2390834E-09)
 number of electron       2.0000001 magnetization 
 augmentation part        0.0428721 magnetization 

 Broyden mixing:
  rms(total) = 0.10868E-05    rms(broyden)= 0.10835E-05
  rms(prec ) = 0.14012E-05
  weight for this iteration     100.00

 eigenvalues of (default mixing * dielectric matrix)
  average eigenvalue GAMMA=   2.6535
  8.3685  5.3710  3.8526  2.9527  2.5824  2.0925  1.7635  1.0814  0.9824  0.9982
  0.9982  0.7991

 Free energy of the ion-electron system (eV)
  ---------------------------------------------------
  alpha Z        PSCENC =         0.00121808
  Ewald energy   TEWEN  =        15.71587062
  -Hartree energ DENC   =       -31.96218197
  -exchange      EXHF   =         0.00000000
  -V(xc)+E(xc)   XCENC  =         5.24303161
  PAW double counting   =        25.92798635      -25.98460996
  entropy T*S    EENTRO =        -0.00000000
  eigenvalues    EBANDS =       -20.97966102
  atomic energy  EATOM  =        25.06705842
  Solvation  Ediel_sol  =         0.00000000
  ---------------------------------------------------
  free energy    TOTEN  =        -6.97128787 eV

  energy without entropy =       -6.97128787  energy(sigma->0) =       -6.97128787


--------------------------------------------------------------------------------------------------------




--------------------------------------- Iteration      9(  14)  ---------------------------------------


    POTLOK:  cpu time      0.1512: real time      0.1530
    SETDIJ:  cpu time      0.0879: real time      0.0888
     EDDAV:  cpu time      0.1612: real time      0.1630
       DOS:  cpu time      0.0005: real time      0.0005
    --------------------------------------------
      LOOP:  cpu time      0.4008: real time      0.4053

 eigenvalue-minimisations  :    64
 total energy-change (2. order) :-0.4319794E-07  (-0.1573852E-11)
 number of electron       2.0000001 magnetization 
 augmentation part        0.0428721 magnetization 

 Free energy of the ion-electron system (eV)
  ---------------------------------------------------
  alpha Z        PSCENC =         0.00121808
  Ewald energy   TEWEN  =        15.71587062
  -Hartree energ DENC   =       -31.96217967
  -exchange      EXHF   =         0.00000000
  -V(xc)+E(xc)   XCENC  =         5.24303069
  PAW double counting   =        25.92802099      -25.98464462
  entropy T*S    EENTRO =        -0.00000000
  eigenvalues    EBANDS =       -20.97966243
  atomic energy  EATOM  =        25.06705842
  Solvation  Ediel_sol  =         0.00000000
  ---------------------------------------------------
  free energy    TOTEN  =        -6.97128792 eV

  energy without entropy =       -6.97128792  energy(sigma->0) =       -6.97128792


--------------------------------------------------------------------------------------------------------




 average (electrostatic) potential at core
  the test charge radii are     0.5201
  (the norm of the test charge is              1.0000)
       1 -41.9334       2 -41.9328



 E-fermi : -10.4191     XC(G=0):  -0.0652     alpha+bet : -0.0069

 val. band max:      -10.4898312148   @ k =   0.0000   0.0000   0.0000
 cond. band min:      -0.0577314352   @ k =   0.0000   0.0000   0.0000
 fundamental gap:     10.4320997796
 Fermi energy:       -10.4191260626

 k-point     1 :       0.0000    0.0000    0.0000
  band No.  band energies     occupation 
      1     -10.4898      2.00000
      2      -0.0577      0.00000
      3       0.1506      0.00000
      4       0.2363      0.00000
      5       0.3149      0.00000
      6       0.3150      0.00000
      7       0.3537      0.00000
      8       0.3542      0.00000
      9       0.4507      0.00000
     10       0.6020      0.00000
     11       0.6020      0.00000
     12       0.6326      0.00000
     13       0.7269      0.00000
     14       0.7281      0.00000
     15       0.7315      0.00000
     16       0.7315      0.00000
     17       0.7336      0.00000
     18       0.7339      0.00000
     19       0.7342      0.00000
     20       0.7344      0.00000
     21       0.8885      0.00000
     22       1.0078      0.00000
     23       1.0079      0.00000
     24       1.0726      0.00000
     25       1.1014      0.00000
     26       1.1016      0.00000
     27       1.1041      0.00000
     28       1.1149      0.00000
     29       1.2095      0.00000
     30       1.3459      0.00000
     31       1.3459      0.00000
     32       1.4603      0.00000


--------------------------------------------------------------------------------------------------------


 soft charge-density along one line, spin component           1
         0         1         2         3         4         5         6         7         8         9
 total charge-density along one line

 pseudopotential strength for first ion, spin component:           1
 -2.345  -4.042  -0.000   0.000  -0.010
 -4.042  -6.881  -0.000   0.000  -0.021
 -0.000  -0.000  -0.342  -0.000  -0.000
  0.000   0.000  -0.000  -0.342  -0.000
 -0.010  -0.021  -0.000  -0.000  -0.316
 total augmentation occupancy for first ion, spin component:           1
  3.151  -0.480   0.000   0.000   0.405
 -0.480   0.073  -0.000  -0.000  -0.062
  0.000  -0.000   0.000   0.000   0.000
  0.000  -0.000   0.000   0.000   0.000
  0.405  -0.062   0.000   0.000   0.052


------------------------ aborting loop because EDIFF is reached ----------------------------------------


    CHARGE:  cpu time      0.0542: real time      0.0548
    FORLOC:  cpu time      0.0011: real time      0.0011
    FORNL :  cpu time      0.2431: real time      0.2462
    STRESS:  cpu time      1.3329: real time      1.5859
    FORHAR:  cpu time      0.0164: real time      0.0168
    MIXING:  cpu time      0.0026: real time      0.0026
    OFIELD:  cpu time      0.0000: real time      0.0000

 ---------------------------------------------------------------------------------------------

         DFTD3 V3.0 Rev 1        
 Edisp (eV)   -0.00000

 E6    (eV) :    -0.0000
 E8    (eV) :    -0.0000
 % E8        :  4.47
    FORVDW:  cpu time      0.0068: real time      0.0071

  FORCE on cell =-STRESS in cart. coord.  units (eV):
  Direction    XX          YY          ZZ          XY          YZ          ZX
  --------------------------------------------------------------------------------------
  Alpha Z     0.00122     0.00122     0.00122
  Ewald      18.44168    -1.36290    -1.36290     0.00000     0.00000     0.00000
  Hartree    12.11714     9.92253     9.92253     0.00000    -0.00000     0.00000
  E(xc)      -5.89901    -6.19323    -6.19323     0.00000    -0.00000     0.00000
  Local     -32.07794   -18.54317   -18.54317    -0.00000     0.00000    -0.00000
  n-local    -6.61448    -5.57406    -5.57406    -0.00000    -0.00000    -0.00000
  augment     0.20079     0.28117     0.28118    -0.00000     0.00000     0.00000
  Kinetic    14.21028    21.34658    21.34658    -0.00000     0.00000    -0.00000
  Fock        0.00000     0.00000     0.00000     0.00000     0.00000     0.00000
  vdW         0.00003    -0.00000    -0.00000     0.00000     0.00000     0.00000
  -------------------------------------------------------------------------------------
  Total       0.37971    -0.12187    -0.12186    -0.00000     0.00000     0.00000
  in kB       0.07604    -0.02441    -0.02441    -0.00000     0.00000     0.00000
  external pressure =        0.01 kB  Pullay stress =        0.00 kB


 VOLUME and BASIS-vectors are now :
 -----------------------------------------------------------------------------
  energy-cutoff  :      400.00
  volume of cell :     8000.00
      direct lattice vectors                 reciprocal lattice vectors
    20.000000000  0.000000000  0.000000000     0.050000000  0.000000000  0.000000000
     0.000000000 20.000000000  0.000000000     0.000000000  0.050000000  0.000000000
     0.000000000  0.000000000 20.000000000     0.000000000  0.000000000  0.050000000

  length of vectors
    20.000000000 20.000000000 20.000000000     0.050000000  0.050000000  0.050000000


 FORCES acting on ions
    electron-ion (+dipol)            ewald-force                    non-local-force                 convergence-correction
 -----------------------------------------------------------------------------------------------
   0.211E+02 0.430E-08 0.717E-07   -.272E+02 -.553E-08 -.109E-06   0.540E+01 0.356E-08 0.359E-06   -.235E-05 0.217E-10 0.264E-08
   -.211E+02 -.428E-08 -.589E-07   0.272E+02 0.553E-08 0.109E-06   -.540E+01 -.554E-08 -.474E-06   0.302E-05 0.230E-10 0.172E-08
 -----------------------------------------------------------------------------------------------
   0.584E-04 0.202E-10 0.128E-07   0.000E+00 -.169E-18 0.317E-18   0.244E-03 -.198E-08 -.115E-06   0.671E-06 0.447E-10 0.436E-08


 POSITION                                       TOTAL-FORCE (eV/Angst)
 -----------------------------------------------------------------------------------
      9.62636     10.00000     10.00000        -0.734547      0.000000      0.000000
     10.35364     10.00000     10.00000         0.734547     -0.000000     -0.000000
 -----------------------------------------------------------------------------------
    total drift:                                0.000304     -0.000000     -0.000000


--------------------------------------------------------------------------------------------------------



  FREE ENERGIE OF THE ION-ELECTRON SYSTEM (eV)
  ---------------------------------------------------
  free  energy   TOTEN  =        -6.97129154 eV

  energy  without entropy=       -6.97129154  energy(sigma->0) =       -6.97129154

 d Force =-0.1745531E-02[-0.294E-01, 0.259E-01]  d Energy =-0.5410177E-03-0.120E-02
 d Force =-0.1033447E+01[-0.109E+01,-0.978E+00]  d Ewald  =-0.1031967E+01-0.148E-02


--------------------------------------------------------------------------------------------------------


    POTLOK:  cpu time      0.1592: real time      0.1628


--------------------------------------------------------------------------------------------------------


 Finite differences progress:
  Degree of freedom:   4/  6
  Displacement:        2/  2
  Total:               8/ 12
    WAVPRE:  cpu time      0.0047: real time      0.0055
    FEWALD:  cpu time      0.1512: real time      0.1521
    ORTHCH:  cpu time      0.0145: real time      0.0147
     LOOP+:  cpu time      9.3146: real time      9.6633


--------------------------------------- Ionic step       10  -------------------------------------------




--------------------------------------- Iteration     10(   1)  ---------------------------------------


    POTLOK:  cpu time      0.0618: real time      0.0633
    SETDIJ:  cpu time      0.0874: real time      0.0881
     EDDAV:  cpu time      0.1614: real time      0.1633
       DOS:  cpu time      0.0006: real time      0.0007
    CHARGE:  cpu time      0.0540: real time      0.0550
    MIXING:  cpu time      0.0017: real time      0.0017
    --------------------------------------------
      LOOP:  cpu time      0.3669: real time      0.3721

 eigenvalue-minimisations  :    64
 total energy-change (2. order) :-0.7972073E-02  (-0.3193272E-01)
 number of electron       2.0000000 magnetization 
 augmentation part        0.0415724 magnetization 

 Broyden mixing:
  rms(total) = 0.22884E-01    rms(broyden)= 0.22848E-01
  rms(prec ) = 0.24128E-01
  weight for this iteration     100.00

 Free energy of the ion-electron system (eV)
  ---------------------------------------------------
  alpha Z        PSCENC =         0.00121808
  Ewald energy   TEWEN  =        15.17917677
  -Hartree energ DENC   =       -31.78812412
  -exchange      EXHF   =         0.00000000
  -V(xc)+E(xc)   XCENC  =         5.22173167
  PAW double counting   =        25.92795572      -25.98457937
  entropy T*S    EENTRO =        -0.00000000
  eigenvalues    EBANDS =       -20.60369712
  atomic energy  EATOM  =        25.06705842
  Solvation  Ediel_sol  =         0.00000000
  ---------------------------------------------------
  free energy    TOTEN  =        -6.97925995 eV

  energy without entropy =       -6.97925995  energy(sigma->0) =       -6.97925995


--------------------------------------------------------------------------------------------------------




--------------------------------------- Iteration     10(   2)  ---------------------------------------


    POTLOK:  cpu time      0.0654: real time      0.0665
    SETDIJ:  cpu time      0.0884: real time      0.0891
     EDDAV:  cpu time      0.2996: real time      0.3031
       DOS:  cpu time      0.0007: real time      0.0007
    CHARGE:  cpu time      0.0546: real time      0.0558
    MIXING:  cpu time      0.0018: real time      0.0019
    --------------------------------------------
      LOOP:  cpu time      0.5106: real time      0.5171

 eigenvalue-minimisations  :   128
 total energy-change (2. order) : 0.7096678E-03  (-0.1595923E-03)
 number of electron       2.0000000 magnetization 
 augmentation part        0.0416431 magnetization 

 Broyden mixing:
  rms(total) = 0.12887E-01    rms(broyden)= 0.12884E-01
  rms(prec ) = 0.13556E-01
  weight for this iteration     100.00

 eigenvalues of (default mixing * dielectric matrix)
  average eigenvalue GAMMA=   2.2518
  2.2518

 Free energy of the ion-electron system (eV)
  ---------------------------------------------------
  alpha Z        PSCENC =         0.00121808
  Ewald energy   TEWEN  =        15.17917677
  -Hartree energ DENC   =       -31.69594916
  -exchange      EXHF   =         0.00000000
  -V(xc)+E(xc)   XCENC  =         5.20912627
  PAW double counting   =        25.29114608      -25.34630331
  entropy T*S    EENTRO =        -0.00000000
  eigenvalues    EBANDS =       -20.68402343
  atomic energy  EATOM  =        25.06705842
  Solvation  Ediel_sol  =         0.00000000
  ---------------------------------------------------
  free energy    TOTEN  =        -6.97855028 eV

  energy without entropy =       -6.97855028  energy(sigma->0) =       -6.97855028


--------------------------------------------------------------------------------------------------------




--------------------------------------- Iteration     10(   3)  ---------------------------------------


    POTLOK:  cpu time      0.0676: real time      0.0688
    SETDIJ:  cpu time      0.0886: real time      0.0893
     EDDAV:  cpu time      0.1614: real time      0.1634
       DOS:  cpu time      0.0004: real time      0.0005
    CHARGE:  cpu time      0.0550: real time      0.0562
    MIXING:  cpu time      0.0020: real time      0.0021
    --------------------------------------------
      LOOP:  cpu time      0.3752: real time      0.3802

 eigenvalue-minimisations  :    64
 total energy-change (2. order) : 0.1298705E-03  (-0.1100410E-03)
 number of electron       2.0000000 magnetization 
 augmentation part        0.0417348 magnetization 

 Broyden mixing:
  rms(total) = 0.13776E-02    rms(broyden)= 0.13754E-02
  rms(prec ) = 0.14919E-02
  weight for this iteration     100.00

 eigenvalues of (default mixing * dielectric matrix)
  average eigenvalue GAMMA=   1.5436
  0.9146  2.1725

 Free energy of the ion-electron system (eV)
  ---------------------------------------------------
  alpha Z        PSCENC =         0.00121808
  Ewald energy   TEWEN  =        15.17917677
  -Hartree energ DENC   =       -31.58469030
  -exchange      EXHF   =         0.00000000
  -V(xc)+E(xc)   XCENC  =         5.19401541
  PAW double counting   =        24.47707965      -24.53042541
  entropy T*S    EENTRO =        -0.00000000
  eigenvalues    EBANDS =       -20.78185302
  atomic energy  EATOM  =        25.06705842
  Solvation  Ediel_sol  =         0.00000000
  ---------------------------------------------------
  free energy    TOTEN  =        -6.97842041 eV

  energy without entropy =       -6.97842041  energy(sigma->0) =       -6.97842041


--------------------------------------------------------------------------------------------------------




--------------------------------------- Iteration     10(   4)  ---------------------------------------


    POTLOK:  cpu time      0.0632: real time      0.0645
    SETDIJ:  cpu time      0.0882: real time      0.0888
     EDDAV:  cpu time      0.2258: real time      0.2284
       DOS:  cpu time      0.0006: real time      0.0006
    CHARGE:  cpu time      0.0540: real time      0.0551
    MIXING:  cpu time      0.0018: real time      0.0018
    --------------------------------------------
      LOOP:  cpu time      0.4337: real time      0.4393

 eigenvalue-minimisations  :    96
 total energy-change (2. order) :-0.7188538E-05  (-0.1310688E-05)
 number of electron       2.0000000 magnetization 
 augmentation part        0.0417326 magnetization 

 Broyden mixing:
  rms(total) = 0.84799E-03    rms(broyden)= 0.84781E-03
  rms(prec ) = 0.91310E-03
  weight for this iteration     100.00

 eigenvalues of (default mixing * dielectric matrix)
  average eigenvalue GAMMA=   1.8826
  1.0751  2.0589  2.5137

 Free energy of the ion-electron system (eV)
  ---------------------------------------------------
  alpha Z        PSCENC =         0.00121808
  Ewald energy   TEWEN  =        15.17917677
  -Hartree energ DENC   =       -31.58897463
  -exchange      EXHF   =         0.00000000
  -V(xc)+E(xc)   XCENC  =         5.19471795
  PAW double counting   =        24.48261846      -24.53600277
  entropy T*S    EENTRO =        -0.00000000
  eigenvalues    EBANDS =       -20.77823989
  atomic energy  EATOM  =        25.06705842
  Solvation  Ediel_sol  =         0.00000000
  ---------------------------------------------------
  free energy    TOTEN  =        -6.97842760 eV

  energy without entropy =       -6.97842760  energy(sigma->0) =       -6.97842760


--------------------------------------------------------------------------------------------------------




--------------------------------------- Iteration     10(   5)  ---------------------------------------


    POTLOK:  cpu time      0.0655: real time      0.0669
    SETDIJ:  cpu time      0.0881: real time      0.0887
     EDDAV:  cpu time      0.3074: real time      0.3107
       DOS:  cpu time      0.0005: real time      0.0005
    CHARGE:  cpu time      0.0553: real time      0.0564
    MIXING:  cpu time      0.0020: real time      0.0020
    --------------------------------------------
      LOOP:  cpu time      0.5189: real time      0.5252

 eigenvalue-minimisations  :   128
 total energy-change (2. order) :-0.1222326E-04  (-0.9120469E-06)
 number of electron       2.0000000 magnetization 
 augmentation part        0.0417317 magnetization 

 Broyden mixing:
  rms(total) = 0.20289E-03    rms(broyden)= 0.20275E-03
  rms(prec ) = 0.23082E-03
  weight for this iteration     100.00

 eigenvalues of (default mixing * dielectric matrix)
  average eigenvalue GAMMA=   1.6428
  2.5066  2.0190  1.0227  1.0227

 Free energy of the ion-electron system (eV)
  ---------------------------------------------------
  alpha Z        PSCENC =         0.00121808
  Ewald energy   TEWEN  =        15.17917677
  -Hartree energ DENC   =       -31.58824679
  -exchange      EXHF   =         0.00000000
  -V(xc)+E(xc)   XCENC  =         5.19486895
  PAW double counting   =        24.43837999      -24.49171758
  entropy T*S    EENTRO =        -0.00000000
  eigenvalues    EBANDS =       -20.77917765
  atomic energy  EATOM  =        25.06705842
  Solvation  Ediel_sol  =         0.00000000
  ---------------------------------------------------
  free energy    TOTEN  =        -6.97843982 eV

  energy without entropy =       -6.97843982  energy(sigma->0) =       -6.97843982


--------------------------------------------------------------------------------------------------------




--------------------------------------- Iteration     10(   6)  ---------------------------------------


    POTLOK:  cpu time      0.0628: real time      0.0650
    SETDIJ:  cpu time      0.0881: real time      0.0888
     EDDAV:  cpu time      0.1626: real time      0.1644
       DOS:  cpu time      0.0006: real time      0.0006
    CHARGE:  cpu time      0.0541: real time      0.0552
    MIXING:  cpu time      0.0024: real time      0.0024
    --------------------------------------------
      LOOP:  cpu time      0.3706: real time      0.3765

 eigenvalue-minimisations  :    64
 total energy-change (2. order) :-0.2497531E-05  (-0.1619253E-07)
 number of electron       2.0000000 magnetization 
 augmentation part        0.0417318 magnetization 

 Broyden mixing:
  rms(total) = 0.10410E-03    rms(broyden)= 0.10409E-03
  rms(prec ) = 0.13222E-03
  weight for this iteration     100.00

 eigenvalues of (default mixing * dielectric matrix)
  average eigenvalue GAMMA=   1.7886
  2.7516  2.2302  1.8012  1.0069  1.1531

 Free energy of the ion-electron system (eV)
  ---------------------------------------------------
  alpha Z        PSCENC =         0.00121808
  Ewald energy   TEWEN  =        15.17917677
  -Hartree energ DENC   =       -31.58760523
  -exchange      EXHF   =         0.00000000
  -V(xc)+E(xc)   XCENC  =         5.19481052
  PAW double counting   =        24.43779211      -24.49112852
  entropy T*S    EENTRO =        -0.00000000
  eigenvalues    EBANDS =       -20.77976447
  atomic energy  EATOM  =        25.06705842
  Solvation  Ediel_sol  =         0.00000000
  ---------------------------------------------------
  free energy    TOTEN  =        -6.97844232 eV

  energy without entropy =       -6.97844232  energy(sigma->0) =       -6.97844232


--------------------------------------------------------------------------------------------------------




--------------------------------------- Iteration     10(   7)  ---------------------------------------


    POTLOK:  cpu time      0.0647: real time      0.0660
    SETDIJ:  cpu time      0.0887: real time      0.0895
     EDDAV:  cpu time      0.3164: real time      0.3199
       DOS:  cpu time      0.0014: real time      0.0014
    CHARGE:  cpu time      0.0542: real time      0.0553
    MIXING:  cpu time      0.0024: real time      0.0024
    --------------------------------------------
      LOOP:  cpu time      0.5277: real time      0.5344

 eigenvalue-minimisations  :   128
 total energy-change (2. order) :-0.4630444E-05  (-0.4949473E-07)
 number of electron       2.0000000 magnetization 
 augmentation part        0.0417320 magnetization 

 Broyden mixing:
  rms(total) = 0.38204E-04    rms(broyden)= 0.38187E-04
  rms(prec ) = 0.58720E-04
  weight for this iteration     100.00

 eigenvalues of (default mixing * dielectric matrix)
  average eigenvalue GAMMA=   1.9373
  3.4611  2.4934  1.9396  1.0032  1.3632  1.3632

 Free energy of the ion-electron system (eV)
  ---------------------------------------------------
  alpha Z        PSCENC =         0.00121808
  Ewald energy   TEWEN  =        15.17917677
  -Hartree energ DENC   =       -31.58645951
  -exchange      EXHF   =         0.00000000
  -V(xc)+E(xc)   XCENC  =         5.19473099
  PAW double counting   =        24.43749781      -24.49083572
  entropy T*S    EENTRO =        -0.00000000
  eigenvalues    EBANDS =       -20.78083380
  atomic energy  EATOM  =        25.06705842
  Solvation  Ediel_sol  =         0.00000000
  ---------------------------------------------------
  free energy    TOTEN  =        -6.97844695 eV

  energy without entropy =       -6.97844695  energy(sigma->0) =       -6.97844695


--------------------------------------------------------------------------------------------------------




--------------------------------------- Iteration     10(   8)  ---------------------------------------


    POTLOK:  cpu time      0.0637: real time      0.0654
    SETDIJ:  cpu time      0.0880: real time      0.0889
     EDDAV:  cpu time      0.3030: real time      0.3064
       DOS:  cpu time      0.0005: real time      0.0010
    CHARGE:  cpu time      0.0541: real time      0.0548
    MIXING:  cpu time      0.0024: real time      0.0024
    --------------------------------------------
      LOOP:  cpu time      0.5118: real time      0.5187

 eigenvalue-minimisations  :   128
 total energy-change (2. order) :-0.2385716E-05  (-0.2449760E-07)
 number of electron       2.0000000 magnetization 
 augmentation part        0.0417322 magnetization 

 Broyden mixing:
  rms(total) = 0.13429E-04    rms(broyden)= 0.13420E-04
  rms(prec ) = 0.25400E-04
  weight for this iteration     100.00

 eigenvalues of (default mixing * dielectric matrix)
  average eigenvalue GAMMA=   1.9763
  4.0169  2.6187  2.1400  1.5485  1.0261  1.2419  1.2419

 Free energy of the ion-electron system (eV)
  ---------------------------------------------------
  alpha Z        PSCENC =         0.00121808
  Ewald energy   TEWEN  =        15.17917677
  -Hartree energ DENC   =       -31.58547287
  -exchange      EXHF   =         0.00000000
  -V(xc)+E(xc)   XCENC  =         5.19465133
  PAW double counting   =        24.43834518      -24.49168526
  entropy T*S    EENTRO =        -0.00000000
  eigenvalues    EBANDS =       -20.78174099
  atomic energy  EATOM  =        25.06705842
  Solvation  Ediel_sol  =         0.00000000
  ---------------------------------------------------
  free energy    TOTEN  =        -6.97844934 eV

  energy without entropy =       -6.97844934  energy(sigma->0) =       -6.97844934


--------------------------------------------------------------------------------------------------------




--------------------------------------- Iteration     10(   9)  ---------------------------------------


    POTLOK:  cpu time      0.0644: real time      0.0657
    SETDIJ:  cpu time      0.0883: real time      0.0890
     EDDAV:  cpu time      0.3099: real time      0.3137
       DOS:  cpu time      0.0006: real time      0.0006
    CHARGE:  cpu time      0.0621: real time      0.0632
    MIXING:  cpu time      0.0024: real time      0.0024
    --------------------------------------------
      LOOP:  cpu time      0.5277: real time      0.5347

 eigenvalue-minimisations  :   128
 total energy-change (2. order) :-0.1032153E-05  (-0.5316807E-08)
 number of electron       2.0000000 magnetization 
 augmentation part        0.0417324 magnetization 

 Broyden mixing:
  rms(total) = 0.93864E-05    rms(broyden)= 0.93755E-05
  rms(prec ) = 0.16013E-04
  weight for this iteration     100.00

 eigenvalues of (default mixing * dielectric matrix)
  average eigenvalue GAMMA=   2.2425
  5.4542  3.1165  2.5129  2.0868  1.4659  1.3159  0.9940  0.9940

 Free energy of the ion-electron system (eV)
  ---------------------------------------------------
  alpha Z        PSCENC =         0.00121808
  Ewald energy   TEWEN  =        15.17917677
  -Hartree energ DENC   =       -31.58504508
  -exchange      EXHF   =         0.00000000
  -V(xc)+E(xc)   XCENC  =         5.19461429
  PAW double counting   =        24.43835218      -24.49169168
  entropy T*S    EENTRO =        -0.00000000
  eigenvalues    EBANDS =       -20.78213335
  atomic energy  EATOM  =        25.06705842
  Solvation  Ediel_sol  =         0.00000000
  ---------------------------------------------------
  free energy    TOTEN  =        -6.97845037 eV

  energy without entropy =       -6.97845037  energy(sigma->0) =       -6.97845037


--------------------------------------------------------------------------------------------------------




--------------------------------------- Iteration     10(  10)  ---------------------------------------


    POTLOK:  cpu time      0.0644: real time      0.0661
    SETDIJ:  cpu time      0.0871: real time      0.0878
     EDDAV:  cpu time      0.1618: real time      0.1643
       DOS:  cpu time      0.0005: real time      0.0010
    CHARGE:  cpu time      0.0550: real time      0.0556
    MIXING:  cpu time      0.0024: real time      0.0024
    --------------------------------------------
      LOOP:  cpu time      0.3712: real time      0.3771

 eigenvalue-minimisations  :    64
 total energy-change (2. order) :-0.7030823E-06  (-0.2968324E-08)
 number of electron       2.0000000 magnetization 
 augmentation part        0.0417324 magnetization 

 Broyden mixing:
  rms(total) = 0.46557E-05    rms(broyden)= 0.46385E-05
  rms(prec ) = 0.76663E-05
  weight for this iteration     100.00

 eigenvalues of (default mixing * dielectric matrix)
  average eigenvalue GAMMA=   2.5447
  6.6226  4.0630  2.9058  2.4904  2.0489  1.4519  1.3154  1.0019  1.0019

 Free energy of the ion-electron system (eV)
  ---------------------------------------------------
  alpha Z        PSCENC =         0.00121808
  Ewald energy   TEWEN  =        15.17917677
  -Hartree energ DENC   =       -31.58498706
  -exchange      EXHF   =         0.00000000
  -V(xc)+E(xc)   XCENC  =         5.19462252
  PAW double counting   =        24.43847678      -24.49181659
  entropy T*S    EENTRO =        -0.00000000
  eigenvalues    EBANDS =       -20.78219999
  atomic energy  EATOM  =        25.06705842
  Solvation  Ediel_sol  =         0.00000000
  ---------------------------------------------------
  free energy    TOTEN  =        -6.97845107 eV

  energy without entropy =       -6.97845107  energy(sigma->0) =       -6.97845107


--------------------------------------------------------------------------------------------------------




--------------------------------------- Iteration     10(  11)  ---------------------------------------


    POTLOK:  cpu time      0.0643: real time      0.0655
    SETDIJ:  cpu time      0.0885: real time      0.0892
     EDDAV:  cpu time      0.1617: real time      0.1635
       DOS:  cpu time      0.0006: real time      0.0006
    CHARGE:  cpu time      0.0554: real time      0.0567
    MIXING:  cpu time      0.0030: real time      0.0031
    --------------------------------------------
      LOOP:  cpu time      0.3735: real time      0.3786

 eigenvalue-minimisations  :    64
 total energy-change (2. order) :-0.5158650E-06  (-0.1268702E-08)
 number of electron       2.0000000 magnetization 
 augmentation part        0.0417324 magnetization 

 Broyden mixing:
  rms(total) = 0.33802E-05    rms(broyden)= 0.33567E-05
  rms(prec ) = 0.41395E-05
  weight for this iteration     100.00

 eigenvalues of (default mixing * dielectric matrix)
  average eigenvalue GAMMA=   2.4821
  7.1772  4.2780  2.8887  2.4629  2.0950  1.5082  1.2892  0.9975  1.0620  1.0620

 Free energy of the ion-electron system (eV)
  ---------------------------------------------------
  alpha Z        PSCENC =         0.00121808
  Ewald energy   TEWEN  =        15.17917677
  -Hartree energ DENC   =       -31.58501190
  -exchange      EXHF   =         0.00000000
  -V(xc)+E(xc)   XCENC  =         5.19463157
  PAW double counting   =        24.43852129      -24.49186117
  entropy T*S    EENTRO =        -0.00000000
  eigenvalues    EBANDS =       -20.78218465
  atomic energy  EATOM  =        25.06705842
  Solvation  Ediel_sol  =         0.00000000
  ---------------------------------------------------
  free energy    TOTEN  =        -6.97845159 eV

  energy without entropy =       -6.97845159  energy(sigma->0) =       -6.97845159


--------------------------------------------------------------------------------------------------------




--------------------------------------- Iteration     10(  12)  ---------------------------------------


    POTLOK:  cpu time      0.0643: real time      0.0650
    SETDIJ:  cpu time      0.0882: real time      0.0889
     EDDAV:  cpu time      0.3022: real time      0.3054
       DOS:  cpu time      0.0005: real time      0.0005
    --------------------------------------------
      LOOP:  cpu time      0.4553: real time      0.4599

 eigenvalue-minimisations  :   128
 total energy-change (2. order) :-0.8638061E-07  (-0.2774314E-10)
 number of electron       2.0000000 magnetization 
 augmentation part        0.0417324 magnetization 

 Free energy of the ion-electron system (eV)
  ---------------------------------------------------
  alpha Z        PSCENC =         0.00121808
  Ewald energy   TEWEN  =        15.17917677
  -Hartree energ DENC   =       -31.58498862
  -exchange      EXHF   =         0.00000000
  -V(xc)+E(xc)   XCENC  =         5.19462919
  PAW double counting   =        24.43846632      -24.49180606
  entropy T*S    EENTRO =        -0.00000000
  eigenvalues    EBANDS =       -20.78220577
  atomic energy  EATOM  =        25.06705842
  Solvation  Ediel_sol  =         0.00000000
  ---------------------------------------------------
  free energy    TOTEN  =        -6.97845167 eV

  energy without entropy =       -6.97845167  energy(sigma->0) =       -6.97845167


--------------------------------------------------------------------------------------------------------




 average (electrostatic) potential at core
  the test charge radii are     0.5201
  (the norm of the test charge is              1.0000)
       1 -41.7987       2 -41.7985



 E-fermi : -10.3210     XC(G=0):  -0.0674     alpha+bet : -0.0069

 val. band max:      -10.3911028848   @ k =   0.0000   0.0000   0.0000
 cond. band min:      -0.0617008222   @ k =   0.0000   0.0000   0.0000
 fundamental gap:     10.3294020626
 Fermi energy:       -10.3209821488

 k-point     1 :       0.0000    0.0000    0.0000
  band No.  band energies     occupation 
      1     -10.3911      2.00000
      2      -0.0617      0.00000
      3       0.1082      0.00000
      4       0.2291      0.00000
      5       0.3093      0.00000
      6       0.3098      0.00000
      7       0.3539      0.00000
      8       0.3561      0.00000
      9       0.4411      0.00000
     10       0.5963      0.00000
     11       0.5966      0.00000
     12       0.6339      0.00000
     13       0.7190      0.00000
     14       0.7240      0.00000
     15       0.7295      0.00000
     16       0.7302      0.00000
     17       0.7360      0.00000
     18       0.7378      0.00000
     19       0.7412      0.00000
     20       0.7422      0.00000
     21       0.8653      0.00000
     22       1.0041      0.00000
     23       1.0044      0.00000
     24       1.0625      0.00000
     25       1.0977      0.00000
     26       1.0990      0.00000
     27       1.1065      0.00000
     28       1.1158      0.00000
     29       1.2005      0.00000
     30       1.3458      0.00000
     31       1.3478      0.00000
     32       1.4603      0.00000


--------------------------------------------------------------------------------------------------------


 soft charge-density along one line, spin component           1
         0         1         2         3         4         5         6         7         8         9
 total charge-density along one line

 pseudopotential strength for first ion, spin component:           1
 -2.344  -4.040  -0.000   0.000  -0.009
 -4.040  -6.877  -0.001   0.000  -0.019
 -0.000  -0.001  -0.343  -0.000   0.001
  0.000   0.000  -0.000  -0.343  -0.000
 -0.009  -0.019   0.001  -0.000  -0.321
 total augmentation occupancy for first ion, spin component:           1
  3.114  -0.484   0.010  -0.000   0.380
 -0.484   0.075  -0.002   0.000  -0.059
  0.010  -0.002   0.000  -0.000   0.001
 -0.000   0.000  -0.000   0.000  -0.000
  0.380  -0.059   0.001  -0.000   0.046


------------------------ aborting loop because EDIFF is reached ----------------------------------------


    CHARGE:  cpu time      0.0547: real time      0.0553
    FORLOC:  cpu time      0.0010: real time      0.0010
    FORNL :  cpu time      0.2425: real time      0.2454
    STRESS:  cpu time      0.8438: real time      0.8543
    FORHAR:  cpu time      0.0155: real time      0.0157
    MIXING:  cpu time      0.0020: real time      0.0021
    OFIELD:  cpu time      0.0000: real time      0.0000

 ---------------------------------------------------------------------------------------------

         DFTD3 V3.0 Rev 1        
 Edisp (eV)   -0.00000

 E6    (eV) :    -0.0000
 E8    (eV) :    -0.0000
 % E8        :  4.58
    FORVDW:  cpu time      0.0075: real time      0.0076

  FORCE on cell =-STRESS in cart. coord.  units (eV):
  Direction    XX          YY          ZZ          XY          YZ          ZX
  --------------------------------------------------------------------------------------
  Alpha Z     0.00122     0.00122     0.00122
  Ewald      17.89132    -1.34917    -1.36296     0.51500     0.00000     0.00000
  Hartree    12.02915     9.77872     9.77711     0.06010     0.00000     0.00000
  E(xc)      -5.83915    -6.13633    -6.13655     0.00796     0.00000    -0.00000
  Local     -31.90571   -18.29675   -18.28698    -0.36400    -0.00000    -0.00000
  n-local    -6.41474    -5.44811    -5.44741    -0.02589    -0.00000     0.00000
  augment     0.20200     0.27229     0.27233    -0.00189     0.00000     0.00000
  Kinetic    13.87232    21.05818    21.06333    -0.19246    -0.00000     0.00000
  Fock        0.00000     0.00000     0.00000     0.00000     0.00000     0.00000
  vdW         0.00003    -0.00000    -0.00000     0.00000     0.00000     0.00000
  -------------------------------------------------------------------------------------
  Total      -0.16355    -0.11996    -0.11991    -0.00117     0.00000     0.00000
  in kB      -0.03275    -0.02402    -0.02401    -0.00024     0.00000     0.00000
  external pressure =       -0.03 kB  Pullay stress =        0.00 kB


 VOLUME and BASIS-vectors are now :
 -----------------------------------------------------------------------------
  energy-cutoff  :      400.00
  volume of cell :     8000.00
      direct lattice vectors                 reciprocal lattice vectors
    20.000000000  0.000000000  0.000000000     0.050000000  0.000000000  0.000000000
     0.000000000 20.000000000  0.000000000     0.000000000  0.050000000  0.000000000
     0.000000000  0.000000000 20.000000000     0.000000000  0.000000000  0.050000000

  length of vectors
    20.000000000 20.000000000 20.000000000     0.050000000  0.050000000  0.050000000


 FORCES acting on ions
    electron-ion (+dipol)            ewald-force                    non-local-force                 convergence-correction
 -----------------------------------------------------------------------------------------------
   0.207E+02 0.553E+00 0.226E-07   -.258E+02 -.689E+00 -.100E-06   0.510E+01 0.136E+00 0.526E-06   0.545E-06 -.144E-05 0.349E-09
   -.207E+02 -.553E+00 -.167E-06   0.258E+02 0.689E+00 0.100E-06   -.510E+01 -.137E+00 -.394E-06   -.209E-06 -.221E-05 0.299E-09
 -----------------------------------------------------------------------------------------------
   -.277E-05 -.239E-03 -.145E-06   0.000E+00 0.000E+00 0.315E-18   0.678E-05 -.177E-03 0.132E-06   0.337E-06 -.365E-05 0.647E-09


 POSITION                                       TOTAL-FORCE (eV/Angst)
 -----------------------------------------------------------------------------------
      9.62636     10.00000     10.00000         0.010686      0.000409      0.000000
     10.37364     10.02000     10.00000        -0.010686     -0.000409     -0.000000
 -----------------------------------------------------------------------------------
    total drift:                                0.000004     -0.000420     -0.000000


--------------------------------------------------------------------------------------------------------



  FREE ENERGIE OF THE ION-ELECTRON SYSTEM (eV)
  ---------------------------------------------------
  free  energy   TOTEN  =        -6.97845611 eV

  energy  without entropy=       -6.97845611  energy(sigma->0) =       -6.97845611

 d Force = 0.7234525E-02[-0.222E-03, 0.147E-01]  d Energy = 0.7164567E-02 0.700E-04
 d Force = 0.5366086E+00[ 0.529E+00, 0.544E+00]  d Ewald  = 0.5366938E+00-0.853E-04


--------------------------------------------------------------------------------------------------------


    POTLOK:  cpu time      0.1521: real time      0.1533


--------------------------------------------------------------------------------------------------------


 Finite differences progress:
  Degree of freedom:   5/  6
  Displacement:        1/  2
  Total:               9/ 12
    WAVPRE:  cpu time      0.0047: real time      0.0075
    FEWALD:  cpu time      0.0003: real time      0.0003
    ORTHCH:  cpu time      0.0127: real time      0.0132
     LOOP+:  cpu time      6.7725: real time      6.8659


--------------------------------------- Ionic step       11  -------------------------------------------




--------------------------------------- Iteration     11(   1)  ---------------------------------------


    POTLOK:  cpu time      0.0687: real time      0.0703
    SETDIJ:  cpu time      0.0888: real time      0.0894
     EDDAV:  cpu time      0.1599: real time      0.1618
       DOS:  cpu time      0.0009: real time      0.0010
    CHARGE:  cpu time      0.0536: real time      0.0548
    MIXING:  cpu time      0.0018: real time      0.0018
    --------------------------------------------
      LOOP:  cpu time      0.3737: real time      0.3790

 eigenvalue-minimisations  :    64
 total energy-change (2. order) :-0.6048025E-04  (-0.5731544E-01)
 number of electron       2.0000000 magnetization 
 augmentation part        0.0416965 magnetization 

 Broyden mixing:
  rms(total) = 0.19942E-01    rms(broyden)= 0.19898E-01
  rms(prec ) = 0.20894E-01
  weight for this iteration     100.00

 Free energy of the ion-electron system (eV)
  ---------------------------------------------------
  alpha Z        PSCENC =         0.00121808
  Ewald energy   TEWEN  =        15.17917677
  -Hartree energ DENC   =       -31.58228111
  -exchange      EXHF   =         0.00000000
  -V(xc)+E(xc)   XCENC  =         5.19451710
  PAW double counting   =        24.43849389      -24.49183372
  entropy T*S    EENTRO =        -0.00000000
  eigenvalues    EBANDS =       -20.78486150
  atomic energy  EATOM  =        25.06705842
  Solvation  Ediel_sol  =         0.00000000
  ---------------------------------------------------
  free energy    TOTEN  =        -6.97851207 eV

  energy without entropy =       -6.97851207  energy(sigma->0) =       -6.97851207


--------------------------------------------------------------------------------------------------------




--------------------------------------- Iteration     11(   2)  ---------------------------------------


    POTLOK:  cpu time      0.0637: real time      0.0656
    SETDIJ:  cpu time      0.0878: real time      0.0885
     EDDAV:  cpu time      0.3006: real time      0.3038
       DOS:  cpu time      0.0006: real time      0.0006
    CHARGE:  cpu time      0.0541: real time      0.0552
    MIXING:  cpu time      0.0017: real time      0.0017
    --------------------------------------------
      LOOP:  cpu time      0.5084: real time      0.5153

 eigenvalue-minimisations  :   128
 total energy-change (2. order) : 0.1706529E-03  (-0.1797279E-03)
 number of electron       2.0000000 magnetization 
 augmentation part        0.0417335 magnetization 

 Broyden mixing:
  rms(total) = 0.11885E-01    rms(broyden)= 0.11879E-01
  rms(prec ) = 0.12433E-01
  weight for this iteration     100.00

 eigenvalues of (default mixing * dielectric matrix)
  average eigenvalue GAMMA=   2.4296
  2.4296

 Free energy of the ion-electron system (eV)
  ---------------------------------------------------
  alpha Z        PSCENC =         0.00121808
  Ewald energy   TEWEN  =        15.17917677
  -Hartree energ DENC   =       -31.58065491
  -exchange      EXHF   =         0.00000000
  -V(xc)+E(xc)   XCENC  =         5.19421675
  PAW double counting   =        24.44344300      -24.49675242
  entropy T*S    EENTRO =        -0.00000000
  eigenvalues    EBANDS =       -20.78604711
  atomic energy  EATOM  =        25.06705842
  Solvation  Ediel_sol  =         0.00000000
  ---------------------------------------------------
  free energy    TOTEN  =        -6.97834141 eV

  energy without entropy =       -6.97834141  energy(sigma->0) =       -6.97834141


--------------------------------------------------------------------------------------------------------




--------------------------------------- Iteration     11(   3)  ---------------------------------------


    POTLOK:  cpu time      0.0643: real time      0.0650
    SETDIJ:  cpu time      0.0881: real time      0.0889
     EDDAV:  cpu time      0.1626: real time      0.1644
       DOS:  cpu time      0.0006: real time      0.0006
    CHARGE:  cpu time      0.0549: real time      0.0560
    MIXING:  cpu time      0.0019: real time      0.0019
    --------------------------------------------
      LOOP:  cpu time      0.3724: real time      0.3768

 eigenvalue-minimisations  :    64
 total energy-change (2. order) :-0.7007416E-04  (-0.4021345E-04)
 number of electron       2.0000000 magnetization 
 augmentation part        0.0417320 magnetization 

 Broyden mixing:
  rms(total) = 0.50147E-03    rms(broyden)= 0.49768E-03
  rms(prec ) = 0.55895E-03
  weight for this iteration     100.00

 eigenvalues of (default mixing * dielectric matrix)
  average eigenvalue GAMMA=   1.7544
  1.0647  2.4440

 Free energy of the ion-electron system (eV)
  ---------------------------------------------------
  alpha Z        PSCENC =         0.00121808
  Ewald energy   TEWEN  =        15.17917677
  -Hartree energ DENC   =       -31.58574127
  -exchange      EXHF   =         0.00000000
  -V(xc)+E(xc)   XCENC  =         5.19476449
  PAW double counting   =        24.44399600      -24.49733930
  entropy T*S    EENTRO =        -0.00000000
  eigenvalues    EBANDS =       -20.78154468
  atomic energy  EATOM  =        25.06705842
  Solvation  Ediel_sol  =         0.00000000
  ---------------------------------------------------
  free energy    TOTEN  =        -6.97841149 eV

  energy without entropy =       -6.97841149  energy(sigma->0) =       -6.97841149


--------------------------------------------------------------------------------------------------------




--------------------------------------- Iteration     11(   4)  ---------------------------------------


    POTLOK:  cpu time      0.0635: real time      0.0646
    SETDIJ:  cpu time      0.0882: real time      0.0888
     EDDAV:  cpu time      0.2267: real time      0.2292
       DOS:  cpu time      0.0006: real time      0.0006
    CHARGE:  cpu time      0.0542: real time      0.0553
    MIXING:  cpu time      0.0018: real time      0.0019
    --------------------------------------------
      LOOP:  cpu time      0.4352: real time      0.4404

 eigenvalue-minimisations  :    96
 total energy-change (2. order) :-0.8012197E-05  (-0.1428485E-06)
 number of electron       2.0000000 magnetization 
 augmentation part        0.0417321 magnetization 

 Broyden mixing:
  rms(total) = 0.30606E-03    rms(broyden)= 0.30584E-03
  rms(prec ) = 0.35702E-03
  weight for this iteration     100.00

 eigenvalues of (default mixing * dielectric matrix)
  average eigenvalue GAMMA=   2.1406
  1.0053  2.4984  2.9180

 Free energy of the ion-electron system (eV)
  ---------------------------------------------------
  alpha Z        PSCENC =         0.00121808
  Ewald energy   TEWEN  =        15.17917677
  -Hartree energ DENC   =       -31.58549669
  -exchange      EXHF   =         0.00000000
  -V(xc)+E(xc)   XCENC  =         5.19472214
  PAW double counting   =        24.44165796      -24.49499965
  entropy T*S    EENTRO =        -0.00000000
  eigenvalues    EBANDS =       -20.78175653
  atomic energy  EATOM  =        25.06705842
  Solvation  Ediel_sol  =         0.00000000
  ---------------------------------------------------
  free energy    TOTEN  =        -6.97841950 eV

  energy without entropy =       -6.97841950  energy(sigma->0) =       -6.97841950


--------------------------------------------------------------------------------------------------------




--------------------------------------- Iteration     11(   5)  ---------------------------------------


    POTLOK:  cpu time      0.0631: real time      0.0645
    SETDIJ:  cpu time      0.0879: real time      0.0885
     EDDAV:  cpu time      0.2256: real time      0.2283
       DOS:  cpu time      0.0008: real time      0.0008
    CHARGE:  cpu time      0.0536: real time      0.0547
    MIXING:  cpu time      0.0019: real time      0.0019
    --------------------------------------------
      LOOP:  cpu time      0.4328: real time      0.4387

 eigenvalue-minimisations  :    96
 total energy-change (2. order) :-0.1437472E-04  (-0.2655147E-06)
 number of electron       2.0000000 magnetization 
 augmentation part        0.0417326 magnetization 

 Broyden mixing:
  rms(total) = 0.78617E-04    rms(broyden)= 0.78511E-04
  rms(prec ) = 0.10057E-03
  weight for this iteration     100.00

 eigenvalues of (default mixing * dielectric matrix)
  average eigenvalue GAMMA=   1.8006
  2.4228  2.8792  1.0012  0.8992

 Free energy of the ion-electron system (eV)
  ---------------------------------------------------
  alpha Z        PSCENC =         0.00121808
  Ewald energy   TEWEN  =        15.17917677
  -Hartree energ DENC   =       -31.58495339
  -exchange      EXHF   =         0.00000000
  -V(xc)+E(xc)   XCENC  =         5.19463424
  PAW double counting   =        24.43782685      -24.49116532
  entropy T*S    EENTRO =        -0.00000000
  eigenvalues    EBANDS =       -20.78222953
  atomic energy  EATOM  =        25.06705842
  Solvation  Ediel_sol  =         0.00000000
  ---------------------------------------------------
  free energy    TOTEN  =        -6.97843387 eV

  energy without entropy =       -6.97843387  energy(sigma->0) =       -6.97843387


--------------------------------------------------------------------------------------------------------




--------------------------------------- Iteration     11(   6)  ---------------------------------------


    POTLOK:  cpu time      0.0623: real time      0.0646
    SETDIJ:  cpu time      0.0886: real time      0.0892
     EDDAV:  cpu time      0.2261: real time      0.2286
       DOS:  cpu time      0.0005: real time      0.0005
    CHARGE:  cpu time      0.0539: real time      0.0550
    MIXING:  cpu time      0.0020: real time      0.0020
    --------------------------------------------
      LOOP:  cpu time      0.4335: real time      0.4400

 eigenvalue-minimisations  :    96
 total energy-change (2. order) :-0.3358097E-05  (-0.7372915E-08)
 number of electron       2.0000000 magnetization 
 augmentation part        0.0417325 magnetization 

 Broyden mixing:
  rms(total) = 0.38197E-04    rms(broyden)= 0.38189E-04
  rms(prec ) = 0.63246E-04
  weight for this iteration     100.00

 eigenvalues of (default mixing * dielectric matrix)
  average eigenvalue GAMMA=   2.0262
  3.2544  2.4464  2.4464  0.9918  0.9918

 Free energy of the ion-electron system (eV)
  ---------------------------------------------------
  alpha Z        PSCENC =         0.00121808
  Ewald energy   TEWEN  =        15.17917677
  -Hartree energ DENC   =       -31.58502989
  -exchange      EXHF   =         0.00000000
  -V(xc)+E(xc)   XCENC  =         5.19464363
  PAW double counting   =        24.43823184      -24.49157118
  entropy T*S    EENTRO =        -0.00000000
  eigenvalues    EBANDS =       -20.78216490
  atomic energy  EATOM  =        25.06705842
  Solvation  Ediel_sol  =         0.00000000
  ---------------------------------------------------
  free energy    TOTEN  =        -6.97843723 eV

  energy without entropy =       -6.97843723  energy(sigma->0) =       -6.97843723


--------------------------------------------------------------------------------------------------------




--------------------------------------- Iteration     11(   7)  ---------------------------------------


    POTLOK:  cpu time      0.0641: real time      0.0648
    SETDIJ:  cpu time      0.0881: real time      0.0888
     EDDAV:  cpu time      0.2275: real time      0.2299
       DOS:  cpu time      0.0008: real time      0.0008
    CHARGE:  cpu time      0.0528: real time      0.0539
    MIXING:  cpu time      0.0071: real time      0.0071
    --------------------------------------------
      LOOP:  cpu time      0.4405: real time      0.4454

 eigenvalue-minimisations  :    96
 total energy-change (2. order) :-0.7920016E-05  (-0.6441786E-07)
 number of electron       2.0000000 magnetization 
 augmentation part        0.0417324 magnetization 

 Broyden mixing:
  rms(total) = 0.19824E-04    rms(broyden)= 0.19818E-04
  rms(prec ) = 0.31431E-04
  weight for this iteration     100.00

 eigenvalues of (default mixing * dielectric matrix)
  average eigenvalue GAMMA=   2.1870
  3.7342  2.8686  2.5213  1.9604  1.0070  1.0308

 Free energy of the ion-electron system (eV)
  ---------------------------------------------------
  alpha Z        PSCENC =         0.00121808
  Ewald energy   TEWEN  =        15.17917677
  -Hartree energ DENC   =       -31.58504888
  -exchange      EXHF   =         0.00000000
  -V(xc)+E(xc)   XCENC  =         5.19464301
  PAW double counting   =        24.43862296      -24.49196322
  entropy T*S    EENTRO =        -0.00000000
  eigenvalues    EBANDS =       -20.78215231
  atomic energy  EATOM  =        25.06705842
  Solvation  Ediel_sol  =         0.00000000
  ---------------------------------------------------
  free energy    TOTEN  =        -6.97844515 eV

  energy without entropy =       -6.97844515  energy(sigma->0) =       -6.97844515


--------------------------------------------------------------------------------------------------------




--------------------------------------- Iteration     11(   8)  ---------------------------------------


    POTLOK:  cpu time      0.1536: real time      0.1557
    SETDIJ:  cpu time      0.1920: real time      0.1934
     EDDAV:  cpu time      0.3031: real time      0.3065
       DOS:  cpu time      0.0005: real time      0.0005
    CHARGE:  cpu time      0.0543: real time      0.0554
    MIXING:  cpu time      0.0023: real time      0.0024
    --------------------------------------------
      LOOP:  cpu time      0.7058: real time      0.7138

 eigenvalue-minimisations  :   128
 total energy-change (2. order) :-0.4078273E-05  (-0.2061143E-07)
 number of electron       2.0000000 magnetization 
 augmentation part        0.0417324 magnetization 

 Broyden mixing:
  rms(total) = 0.84883E-05    rms(broyden)= 0.84785E-05
  rms(prec ) = 0.14667E-04
  weight for this iteration     100.00

 eigenvalues of (default mixing * dielectric matrix)
  average eigenvalue GAMMA=   2.1128
  4.5290  2.9012  2.4172  1.9978  1.0137  1.0137  0.9171

 Free energy of the ion-electron system (eV)
  ---------------------------------------------------
  alpha Z        PSCENC =         0.00121808
  Ewald energy   TEWEN  =        15.17917677
  -Hartree energ DENC   =       -31.58499372
  -exchange      EXHF   =         0.00000000
  -V(xc)+E(xc)   XCENC  =         5.19463317
  PAW double counting   =        24.43853490      -24.49187481
  entropy T*S    EENTRO =        -0.00000000
  eigenvalues    EBANDS =       -20.78220205
  atomic energy  EATOM  =        25.06705842
  Solvation  Ediel_sol  =         0.00000000
  ---------------------------------------------------
  free energy    TOTEN  =        -6.97844923 eV

  energy without entropy =       -6.97844923  energy(sigma->0) =       -6.97844923


--------------------------------------------------------------------------------------------------------




--------------------------------------- Iteration     11(   9)  ---------------------------------------


    POTLOK:  cpu time      0.0634: real time      0.0643
    SETDIJ:  cpu time      0.0892: real time      0.0898
     EDDAV:  cpu time      0.1657: real time      0.1677
       DOS:  cpu time      0.0005: real time      0.0005
    CHARGE:  cpu time      0.0543: real time      0.0554
    MIXING:  cpu time      0.0022: real time      0.0022
    --------------------------------------------
      LOOP:  cpu time      0.3754: real time      0.3800

 eigenvalue-minimisations  :    64
 total energy-change (2. order) :-0.7596011E-06  (-0.9212506E-09)
 number of electron       2.0000000 magnetization 
 augmentation part        0.0417324 magnetization 

 Broyden mixing:
  rms(total) = 0.60288E-05    rms(broyden)= 0.60156E-05
  rms(prec ) = 0.11035E-04
  weight for this iteration     100.00

 eigenvalues of (default mixing * dielectric matrix)
  average eigenvalue GAMMA=   2.4295
  5.9206  3.4371  2.7613  2.4282  1.8370  1.0543  0.9922  1.0054

 Free energy of the ion-electron system (eV)
  ---------------------------------------------------
  alpha Z        PSCENC =         0.00121808
  Ewald energy   TEWEN  =        15.17917677
  -Hartree energ DENC   =       -31.58498059
  -exchange      EXHF   =         0.00000000
  -V(xc)+E(xc)   XCENC  =         5.19463091
  PAW double counting   =        24.43850805      -24.49184790
  entropy T*S    EENTRO =        -0.00000000
  eigenvalues    EBANDS =       -20.78221373
  atomic energy  EATOM  =        25.06705842
  Solvation  Ediel_sol  =         0.00000000
  ---------------------------------------------------
  free energy    TOTEN  =        -6.97844999 eV

  energy without entropy =       -6.97844999  energy(sigma->0) =       -6.97844999


--------------------------------------------------------------------------------------------------------




--------------------------------------- Iteration     11(  10)  ---------------------------------------


    POTLOK:  cpu time      0.0673: real time      0.0681
    SETDIJ:  cpu time      0.0884: real time      0.0890
     EDDAV:  cpu time      0.2261: real time      0.2289
       DOS:  cpu time      0.0006: real time      0.0006
    CHARGE:  cpu time      0.0538: real time      0.0549
    MIXING:  cpu time      0.0025: real time      0.0025
    --------------------------------------------
      LOOP:  cpu time      0.4387: real time      0.4440

 eigenvalue-minimisations  :    96
 total energy-change (2. order) :-0.1345097E-05  (-0.3065313E-08)
 number of electron       2.0000000 magnetization 
 augmentation part        0.0417324 magnetization 

 Broyden mixing:
  rms(total) = 0.26317E-05    rms(broyden)= 0.26013E-05
  rms(prec ) = 0.44580E-05
  weight for this iteration     100.00

 eigenvalues of (default mixing * dielectric matrix)
  average eigenvalue GAMMA=   2.6396
  6.8500  3.7961  3.0037  2.8039  2.4700  1.7613  1.0632  1.0155  0.9928

 Free energy of the ion-electron system (eV)
  ---------------------------------------------------
  alpha Z        PSCENC =         0.00121808
  Ewald energy   TEWEN  =        15.17917677
  -Hartree energ DENC   =       -31.58496187
  -exchange      EXHF   =         0.00000000
  -V(xc)+E(xc)   XCENC  =         5.19462749
  PAW double counting   =        24.43844894      -24.49178865
  entropy T*S    EENTRO =        -0.00000000
  eigenvalues    EBANDS =       -20.78223052
  atomic energy  EATOM  =        25.06705842
  Solvation  Ediel_sol  =         0.00000000
  ---------------------------------------------------
  free energy    TOTEN  =        -6.97845134 eV

  energy without entropy =       -6.97845134  energy(sigma->0) =       -6.97845134


--------------------------------------------------------------------------------------------------------




--------------------------------------- Iteration     11(  11)  ---------------------------------------


    POTLOK:  cpu time      0.0644: real time      0.0655
    SETDIJ:  cpu time      0.0892: real time      0.0898
     EDDAV:  cpu time      0.2261: real time      0.2288
       DOS:  cpu time      0.0006: real time      0.0006
    CHARGE:  cpu time      0.0542: real time      0.0553
    MIXING:  cpu time      0.0024: real time      0.0025
    --------------------------------------------
      LOOP:  cpu time      0.4369: real time      0.4424

 eigenvalue-minimisations  :    96
 total energy-change (2. order) :-0.3675093E-06  (-0.2375735E-09)
 number of electron       2.0000000 magnetization 
 augmentation part        0.0417324 magnetization 

 Broyden mixing:
  rms(total) = 0.16955E-05    rms(broyden)= 0.16483E-05
  rms(prec ) = 0.23113E-05
  weight for this iteration     100.00

 eigenvalues of (default mixing * dielectric matrix)
  average eigenvalue GAMMA=   2.5782
  7.4906  4.3674  3.0589  2.5934  2.4169  1.8409  1.0555  1.0062  1.0062  0.9459

 Free energy of the ion-electron system (eV)
  ---------------------------------------------------
  alpha Z        PSCENC =         0.00121808
  Ewald energy   TEWEN  =        15.17917677
  -Hartree energ DENC   =       -31.58498082
  -exchange      EXHF   =         0.00000000
  -V(xc)+E(xc)   XCENC  =         5.19462990
  PAW double counting   =        24.43851715      -24.49185706
  entropy T*S    EENTRO =        -0.00000000
  eigenvalues    EBANDS =       -20.78221414
  atomic energy  EATOM  =        25.06705842
  Solvation  Ediel_sol  =         0.00000000
  ---------------------------------------------------
  free energy    TOTEN  =        -6.97845170 eV

  energy without entropy =       -6.97845170  energy(sigma->0) =       -6.97845170


--------------------------------------------------------------------------------------------------------




--------------------------------------- Iteration     11(  12)  ---------------------------------------


    POTLOK:  cpu time      0.0664: real time      0.0678
    SETDIJ:  cpu time      0.0883: real time      0.0890
     EDDAV:  cpu time      0.3039: real time      0.3071
       DOS:  cpu time      0.0006: real time      0.0006
    --------------------------------------------
      LOOP:  cpu time      0.4591: real time      0.4645

 eigenvalue-minimisations  :   128
 total energy-change (2. order) :-0.5961832E-07  (-0.1958966E-10)
 number of electron       2.0000000 magnetization 
 augmentation part        0.0417324 magnetization 

 Free energy of the ion-electron system (eV)
  ---------------------------------------------------
  alpha Z        PSCENC =         0.00121808
  Ewald energy   TEWEN  =        15.17917677
  -Hartree energ DENC   =       -31.58497686
  -exchange      EXHF   =         0.00000000
  -V(xc)+E(xc)   XCENC  =         5.19462929
  PAW double counting   =        24.43850055      -24.49184041
  entropy T*S    EENTRO =        -0.00000000
  eigenvalues    EBANDS =       -20.78221760
  atomic energy  EATOM  =        25.06705842
  Solvation  Ediel_sol  =         0.00000000
  ---------------------------------------------------
  free energy    TOTEN  =        -6.97845176 eV

  energy without entropy =       -6.97845176  energy(sigma->0) =       -6.97845176


--------------------------------------------------------------------------------------------------------




 average (electrostatic) potential at core
  the test charge radii are     0.5201
  (the norm of the test charge is              1.0000)
       1 -41.7987       2 -41.7985



 E-fermi : -10.3210     XC(G=0):  -0.0673     alpha+bet : -0.0069

 val. band max:      -10.3911087981   @ k =   0.0000   0.0000   0.0000
 cond. band min:      -0.0602372879   @ k =   0.0000   0.0000   0.0000
 fundamental gap:     10.3308715102
 Fermi energy:       -10.3209926826

 k-point     1 :       0.0000    0.0000    0.0000
  band No.  band energies     occupation 
      1     -10.3911      2.00000
      2      -0.0602      0.00000
      3       0.1110      0.00000
      4       0.2340      0.00000
      5       0.3094      0.00000
      6       0.3106      0.00000
      7       0.3540      0.00000
      8       0.3551      0.00000
      9       0.4396      0.00000
     10       0.5982      0.00000
     11       0.5991      0.00000
     12       0.6308      0.00000
     13       0.7222      0.00000
     14       0.7257      0.00000
     15       0.7258      0.00000
     16       0.7290      0.00000
     17       0.7328      0.00000
     18       0.7358      0.00000
     19       0.7368      0.00000
     20       0.7382      0.00000
     21       0.8719      0.00000
     22       1.0040      0.00000
     23       1.0054      0.00000
     24       1.0688      0.00000
     25       1.0982      0.00000
     26       1.0997      0.00000
     27       1.1039      0.00000
     28       1.1095      0.00000
     29       1.2027      0.00000
     30       1.3403      0.00000
     31       1.3432      0.00000
     32       1.4595      0.00000


--------------------------------------------------------------------------------------------------------


 soft charge-density along one line, spin component           1
         0         1         2         3         4         5         6         7         8         9
 total charge-density along one line

 pseudopotential strength for first ion, spin component:           1
 -2.344  -4.040   0.000   0.000  -0.009
 -4.040  -6.877   0.001   0.000  -0.019
  0.000   0.001  -0.343  -0.000  -0.001
  0.000   0.000  -0.000  -0.343  -0.000
 -0.009  -0.019  -0.001  -0.000  -0.321
 total augmentation occupancy for first ion, spin component:           1
  3.114  -0.484  -0.010  -0.000   0.380
 -0.484   0.075   0.002   0.000  -0.059
 -0.010   0.002   0.000   0.000  -0.001
 -0.000   0.000   0.000   0.000  -0.000
  0.380  -0.059  -0.001  -0.000   0.046


------------------------ aborting loop because EDIFF is reached ----------------------------------------


    CHARGE:  cpu time      0.0541: real time      0.0547
    FORLOC:  cpu time      0.0010: real time      0.0011
    FORNL :  cpu time      0.2428: real time      0.2458
    STRESS:  cpu time      0.8457: real time      0.8560
    FORHAR:  cpu time      0.0155: real time      0.0156
    MIXING:  cpu time      0.0020: real time      0.0020
    OFIELD:  cpu time      0.0000: real time      0.0000

 ---------------------------------------------------------------------------------------------

         DFTD3 V3.0 Rev 1        
 Edisp (eV)   -0.00000

 E6    (eV) :    -0.0000
 E8    (eV) :    -0.0000
 % E8        :  4.58
    FORVDW:  cpu time      0.0079: real time      0.0080

  FORCE on cell =-STRESS in cart. coord.  units (eV):
  Direction    XX          YY          ZZ          XY          YZ          ZX
  --------------------------------------------------------------------------------------
  Alpha Z     0.00122     0.00122     0.00122
  Ewald      17.89132    -1.34917    -1.36296    -0.51500    -0.00000     0.00000
  Hartree    12.02915     9.77872     9.77711    -0.06010     0.00000     0.00000
  E(xc)      -5.83915    -6.13634    -6.13655    -0.00796     0.00000     0.00000
  Local     -31.90571   -18.29674   -18.28698     0.36400    -0.00000    -0.00000
  n-local    -6.41474    -5.44811    -5.44741     0.02589    -0.00000    -0.00000
  augment     0.20200     0.27229     0.27233     0.00189     0.00000     0.00000
  Kinetic    13.87232    21.05817    21.06333     0.19246    -0.00000    -0.00000
  Fock        0.00000     0.00000     0.00000     0.00000     0.00000     0.00000
  vdW         0.00003    -0.00000    -0.00000    -0.00000    -0.00000     0.00000
  -------------------------------------------------------------------------------------
  Total      -0.16355    -0.11996    -0.11991     0.00117     0.00000     0.00000
  in kB      -0.03275    -0.02402    -0.02402     0.00024     0.00000     0.00000
  external pressure =       -0.03 kB  Pullay stress =        0.00 kB


 VOLUME and BASIS-vectors are now :
 -----------------------------------------------------------------------------
  energy-cutoff  :      400.00
  volume of cell :     8000.00
      direct lattice vectors                 reciprocal lattice vectors
    20.000000000  0.000000000  0.000000000     0.050000000  0.000000000  0.000000000
     0.000000000 20.000000000  0.000000000     0.000000000  0.050000000  0.000000000
     0.000000000  0.000000000 20.000000000     0.000000000  0.000000000  0.050000000

  length of vectors
    20.000000000 20.000000000 20.000000000     0.050000000  0.050000000  0.050000000


 FORCES acting on ions
    electron-ion (+dipol)            ewald-force                    non-local-force                 convergence-correction
 -----------------------------------------------------------------------------------------------
   0.207E+02 -.553E+00 0.238E-07   -.258E+02 0.689E+00 -.100E-06   0.510E+01 -.136E+00 0.507E-06   0.620E-06 0.428E-06 -.194E-09
   -.207E+02 0.553E+00 0.397E-07   0.258E+02 -.689E+00 0.100E-06   -.510E+01 0.137E+00 -.696E-06   -.224E-05 0.752E-06 -.129E-09
 -----------------------------------------------------------------------------------------------
   0.499E-06 0.238E-03 0.636E-07   0.000E+00 0.000E+00 0.315E-18   0.683E-05 0.177E-03 -.189E-06   -.162E-05 0.118E-05 -.322E-09


 POSITION                                       TOTAL-FORCE (eV/Angst)
 -----------------------------------------------------------------------------------
      9.62636     10.00000     10.00000         0.010685     -0.000408      0.000000
     10.37364      9.98000     10.00000        -0.010685      0.000408     -0.000000
 -----------------------------------------------------------------------------------
    total drift:                                0.000006      0.000416     -0.000000


--------------------------------------------------------------------------------------------------------



  FREE ENERGIE OF THE ION-ELECTRON SYSTEM (eV)
  ---------------------------------------------------
  free  energy   TOTEN  =        -6.97845620 eV

  energy  without entropy=       -6.97845620  energy(sigma->0) =       -6.97845620

 d Force = 0.1314791E-07[-0.163E-04, 0.164E-04]  d Energy = 0.9022134E-07-0.771E-07
 d Force =-0.2032946E-09[ 0.276E-01,-0.276E-01]  d Ewald  =-0.2037410E-09 0.446E-12


--------------------------------------------------------------------------------------------------------


    POTLOK:  cpu time      0.1527: real time      0.1540


--------------------------------------------------------------------------------------------------------


 Finite differences progress:
  Degree of freedom:   5/  6
  Displacement:        2/  2
  Total:              10/ 12
    WAVPRE:  cpu time      0.0045: real time      0.0056
    FEWALD:  cpu time      0.0003: real time      0.0003
    ORTHCH:  cpu time      0.0132: real time      0.0136
     LOOP+:  cpu time      6.8444: real time      6.9322


--------------------------------------- Ionic step       12  -------------------------------------------




--------------------------------------- Iteration     12(   1)  ---------------------------------------


    POTLOK:  cpu time      0.0621: real time      0.0634
    SETDIJ:  cpu time      0.0900: real time      0.0909
     EDDAV:  cpu time      0.1605: real time      0.1625
       DOS:  cpu time      0.0006: real time      0.0006
    CHARGE:  cpu time      0.0551: real time      0.0562
    MIXING:  cpu time      0.0017: real time      0.0017
    --------------------------------------------
      LOOP:  cpu time      0.3701: real time      0.3752

 eigenvalue-minimisations  :    64
 total energy-change (2. order) :-0.3073842E-04  (-0.2868550E-01)
 number of electron       2.0000000 magnetization 
 augmentation part        0.0417093 magnetization 

 Broyden mixing:
  rms(total) = 0.14110E-01    rms(broyden)= 0.14080E-01
  rms(prec ) = 0.14784E-01
  weight for this iteration     100.00

 Free energy of the ion-electron system (eV)
  ---------------------------------------------------
  alpha Z        PSCENC =         0.00121808
  Ewald energy   TEWEN  =        15.17917677
  -Hartree energ DENC   =       -31.58361985
  -exchange      EXHF   =         0.00000000
  -V(xc)+E(xc)   XCENC  =         5.19457226
  PAW double counting   =        24.43848016      -24.49181994
  entropy T*S    EENTRO =        -0.00000000
  eigenvalues    EBANDS =       -20.78354835
  atomic energy  EATOM  =        25.06705842
  Solvation  Ediel_sol  =         0.00000000
  ---------------------------------------------------
  free energy    TOTEN  =        -6.97848244 eV

  energy without entropy =       -6.97848244  energy(sigma->0) =       -6.97848244


--------------------------------------------------------------------------------------------------------




--------------------------------------- Iteration     12(   2)  ---------------------------------------


    POTLOK:  cpu time      0.0664: real time      0.0675
    SETDIJ:  cpu time      0.0880: real time      0.0887
     EDDAV:  cpu time      0.1611: real time      0.1633
       DOS:  cpu time      0.0005: real time      0.0005
    CHARGE:  cpu time      0.0550: real time      0.0561
    MIXING:  cpu time      0.0017: real time      0.0017
    --------------------------------------------
      LOOP:  cpu time      0.3727: real time      0.3778

 eigenvalue-minimisations  :    64
 total energy-change (2. order) : 0.8750614E-04  (-0.8953852E-04)
 number of electron       2.0000000 magnetization 
 augmentation part        0.0417318 magnetization 

 Broyden mixing:
  rms(total) = 0.83472E-02    rms(broyden)= 0.83432E-02
  rms(prec ) = 0.87312E-02
  weight for this iteration     100.00

 eigenvalues of (default mixing * dielectric matrix)
  average eigenvalue GAMMA=   2.4100
  2.4100

 Free energy of the ion-electron system (eV)
  ---------------------------------------------------
  alpha Z        PSCENC =         0.00121808
  Ewald energy   TEWEN  =        15.17917677
  -Hartree energ DENC   =       -31.58231965
  -exchange      EXHF   =         0.00000000
  -V(xc)+E(xc)   XCENC  =         5.19434948
  PAW double counting   =        24.44088737      -24.49420778
  entropy T*S    EENTRO =        -0.00000000
  eigenvalues    EBANDS =       -20.78455763
  atomic energy  EATOM  =        25.06705842
  Solvation  Ediel_sol  =         0.00000000
  ---------------------------------------------------
  free energy    TOTEN  =        -6.97839494 eV

  energy without entropy =       -6.97839494  energy(sigma->0) =       -6.97839494


--------------------------------------------------------------------------------------------------------




--------------------------------------- Iteration     12(   3)  ---------------------------------------


    POTLOK:  cpu time      0.0649: real time      0.0656
    SETDIJ:  cpu time      0.0893: real time      0.0900
     EDDAV:  cpu time      0.2289: real time      0.2317
       DOS:  cpu time      0.0006: real time      0.0006
    CHARGE:  cpu time      0.0542: real time      0.0553
    MIXING:  cpu time      0.0019: real time      0.0025
    --------------------------------------------
      LOOP:  cpu time      0.4398: real time      0.4457

 eigenvalue-minimisations  :    96
 total energy-change (2. order) :-0.3496542E-04  (-0.1830475E-04)
 number of electron       2.0000000 magnetization 
 augmentation part        0.0417324 magnetization 

 Broyden mixing:
  rms(total) = 0.40483E-03    rms(broyden)= 0.40191E-03
  rms(prec ) = 0.44038E-03
  weight for this iteration     100.00

 eigenvalues of (default mixing * dielectric matrix)
  average eigenvalue GAMMA=   1.7757
  1.0894  2.4621

 Free energy of the ion-electron system (eV)
  ---------------------------------------------------
  alpha Z        PSCENC =         0.00121808
  Ewald energy   TEWEN  =        15.17917677
  -Hartree energ DENC   =       -31.58512245
  -exchange      EXHF   =         0.00000000
  -V(xc)+E(xc)   XCENC  =         5.19466519
  PAW double counting   =        24.44322119      -24.49656035
  entropy T*S    EENTRO =        -0.00000000
  eigenvalues    EBANDS =       -20.78208675
  atomic energy  EATOM  =        25.06705842
  Solvation  Ediel_sol  =         0.00000000
  ---------------------------------------------------
  free energy    TOTEN  =        -6.97842990 eV

  energy without entropy =       -6.97842990  energy(sigma->0) =       -6.97842990


--------------------------------------------------------------------------------------------------------




--------------------------------------- Iteration     12(   4)  ---------------------------------------


    POTLOK:  cpu time      0.0646: real time      0.0653
    SETDIJ:  cpu time      0.0885: real time      0.0892
     EDDAV:  cpu time      0.3035: real time      0.3069
       DOS:  cpu time      0.0005: real time      0.0005
    CHARGE:  cpu time      0.0534: real time      0.0544
    MIXING:  cpu time      0.0027: real time      0.0027
    --------------------------------------------
      LOOP:  cpu time      0.5132: real time      0.5191

 eigenvalue-minimisations  :   128
 total energy-change (2. order) :-0.3985192E-05  (-0.4884738E-07)
 number of electron       2.0000000 magnetization 
 augmentation part        0.0417323 magnetization 

 Broyden mixing:
  rms(total) = 0.20680E-03    rms(broyden)= 0.20649E-03
  rms(prec ) = 0.24140E-03
  weight for this iteration     100.00

 eigenvalues of (default mixing * dielectric matrix)
  average eigenvalue GAMMA=   2.1200
  1.0046  2.4641  2.8913

 Free energy of the ion-electron system (eV)
  ---------------------------------------------------
  alpha Z        PSCENC =         0.00121808
  Ewald energy   TEWEN  =        15.17917677
  -Hartree energ DENC   =       -31.58514118
  -exchange      EXHF   =         0.00000000
  -V(xc)+E(xc)   XCENC  =         5.19466372
  PAW double counting   =        24.44174704      -24.49508678
  entropy T*S    EENTRO =        -0.00000000
  eigenvalues    EBANDS =       -20.78206995
  atomic energy  EATOM  =        25.06705842
  Solvation  Ediel_sol  =         0.00000000
  ---------------------------------------------------
  free energy    TOTEN  =        -6.97843389 eV

  energy without entropy =       -6.97843389  energy(sigma->0) =       -6.97843389


--------------------------------------------------------------------------------------------------------




--------------------------------------- Iteration     12(   5)  ---------------------------------------


    POTLOK:  cpu time      0.0643: real time      0.0657
    SETDIJ:  cpu time      0.0882: real time      0.0888
     EDDAV:  cpu time      0.2261: real time      0.2287
       DOS:  cpu time      0.0007: real time      0.0007
    CHARGE:  cpu time      0.0557: real time      0.0567
    MIXING:  cpu time      0.0020: real time      0.0020
    --------------------------------------------
      LOOP:  cpu time      0.4369: real time      0.4426

 eigenvalue-minimisations  :    96
 total energy-change (2. order) :-0.7083529E-05  (-0.1176528E-06)
 number of electron       2.0000000 magnetization 
 augmentation part        0.0417325 magnetization 

 Broyden mixing:
  rms(total) = 0.38150E-04    rms(broyden)= 0.37647E-04
  rms(prec ) = 0.56631E-04
  weight for this iteration     100.00

 eigenvalues of (default mixing * dielectric matrix)
  average eigenvalue GAMMA=   2.2110
  1.0027  2.9693  2.4359  2.4359

 Free energy of the ion-electron system (eV)
  ---------------------------------------------------
  alpha Z        PSCENC =         0.00121808
  Ewald energy   TEWEN  =        15.17917677
  -Hartree energ DENC   =       -31.58501314
  -exchange      EXHF   =         0.00000000
  -V(xc)+E(xc)   XCENC  =         5.19464007
  PAW double counting   =        24.43936225      -24.49270190
  entropy T*S    EENTRO =        -0.00000000
  eigenvalues    EBANDS =       -20.78218151
  atomic energy  EATOM  =        25.06705842
  Solvation  Ediel_sol  =         0.00000000
  ---------------------------------------------------
  free energy    TOTEN  =        -6.97844097 eV

  energy without entropy =       -6.97844097  energy(sigma->0) =       -6.97844097


--------------------------------------------------------------------------------------------------------




--------------------------------------- Iteration     12(   6)  ---------------------------------------


    POTLOK:  cpu time      0.0659: real time      0.0666
    SETDIJ:  cpu time      0.0901: real time      0.0910
     EDDAV:  cpu time      0.2261: real time      0.2290
       DOS:  cpu time      0.0006: real time      0.0006
    CHARGE:  cpu time      0.0542: real time      0.0552
    MIXING:  cpu time      0.0024: real time      0.0025
    --------------------------------------------
      LOOP:  cpu time      0.4393: real time      0.4448

 eigenvalue-minimisations  :    96
 total energy-change (2. order) :-0.5034879E-05  (-0.3318758E-07)
 number of electron       2.0000000 magnetization 
 augmentation part        0.0417324 magnetization 

 Broyden mixing:
  rms(total) = 0.30599E-04    rms(broyden)= 0.30128E-04
  rms(prec ) = 0.38619E-04
  weight for this iteration     100.00

 eigenvalues of (default mixing * dielectric matrix)
  average eigenvalue GAMMA=   2.1055
  3.4781  2.4636  2.6343  0.9972  0.9542

 Free energy of the ion-electron system (eV)
  ---------------------------------------------------
  alpha Z        PSCENC =         0.00121808
  Ewald energy   TEWEN  =        15.17917677
  -Hartree energ DENC   =       -31.58502588
  -exchange      EXHF   =         0.00000000
  -V(xc)+E(xc)   XCENC  =         5.19463911
  PAW double counting   =        24.43976784      -24.49310787
  entropy T*S    EENTRO =        -0.00000000
  eigenvalues    EBANDS =       -20.78217247
  atomic energy  EATOM  =        25.06705842
  Solvation  Ediel_sol  =         0.00000000
  ---------------------------------------------------
  free energy    TOTEN  =        -6.97844600 eV

  energy without entropy =       -6.97844600  energy(sigma->0) =       -6.97844600


--------------------------------------------------------------------------------------------------------




--------------------------------------- Iteration     12(   7)  ---------------------------------------


    POTLOK:  cpu time      0.0635: real time      0.0646
    SETDIJ:  cpu time      0.0885: real time      0.0892
     EDDAV:  cpu time      0.2289: real time      0.2314
       DOS:  cpu time      0.0005: real time      0.0005
    CHARGE:  cpu time      0.0550: real time      0.0560
    MIXING:  cpu time      0.0021: real time      0.0021
    --------------------------------------------
      LOOP:  cpu time      0.4385: real time      0.4439

 eigenvalue-minimisations  :    96
 total energy-change (2. order) :-0.1996003E-05  (-0.8003308E-08)
 number of electron       2.0000000 magnetization 
 augmentation part        0.0417324 magnetization 

 Broyden mixing:
  rms(total) = 0.10859E-04    rms(broyden)= 0.94655E-05
  rms(prec ) = 0.17714E-04
  weight for this iteration     100.00
  WARNING: grid for Broyden might be to small

 eigenvalues of (default mixing * dielectric matrix)
  average eigenvalue GAMMA=   2.3253
  4.4217  1.0007  0.9879  2.8782  2.3318  2.3318

 Free energy of the ion-electron system (eV)
  ---------------------------------------------------
  alpha Z        PSCENC =         0.00121808
  Ewald energy   TEWEN  =        15.17917677
  -Hartree energ DENC   =       -31.58500023
  -exchange      EXHF   =         0.00000000
  -V(xc)+E(xc)   XCENC  =         5.19463446
  PAW double counting   =        24.43973753      -24.49307749
  entropy T*S    EENTRO =        -0.00000000
  eigenvalues    EBANDS =       -20.78219555
  atomic energy  EATOM  =        25.06705842
  Solvation  Ediel_sol  =         0.00000000
  ---------------------------------------------------
  free energy    TOTEN  =        -6.97844800 eV

  energy without entropy =       -6.97844800  energy(sigma->0) =       -6.97844800


--------------------------------------------------------------------------------------------------------




--------------------------------------- Iteration     12(   8)  ---------------------------------------


    POTLOK:  cpu time      0.0671: real time      0.0683
    SETDIJ:  cpu time      0.0879: real time      0.0885
     EDDAV:  cpu time      0.1647: real time      0.1666
       DOS:  cpu time      0.0005: real time      0.0005
    CHARGE:  cpu time      0.0533: real time      0.0543
    MIXING:  cpu time      0.0030: real time      0.0030
    --------------------------------------------
      LOOP:  cpu time      0.3765: real time      0.3813

 eigenvalue-minimisations  :    64
 total energy-change (2. order) :-0.2287118E-05  (-0.9980365E-08)
 number of electron       2.0000000 magnetization 
 augmentation part        0.0417324 magnetization 

 Broyden mixing:
  rms(total) = 0.72472E-05    rms(broyden)= 0.49203E-05
  rms(prec ) = 0.87371E-05
  weight for this iteration     100.00
  WARNING: grid for Broyden might be to small

 eigenvalues of (default mixing * dielectric matrix)
  average eigenvalue GAMMA=   2.4621
  5.2320  1.0012  1.0141  3.1040  2.5364  2.5364  1.8106

 Free energy of the ion-electron system (eV)
  ---------------------------------------------------
  alpha Z        PSCENC =         0.00121808
  Ewald energy   TEWEN  =        15.17917677
  -Hartree energ DENC   =       -31.58497575
  -exchange      EXHF   =         0.00000000
  -V(xc)+E(xc)   XCENC  =         5.19462984
  PAW double counting   =        24.43967717      -24.49301695
  entropy T*S    EENTRO =        -0.00000000
  eigenvalues    EBANDS =       -20.78221786
  atomic energy  EATOM  =        25.06705842
  Solvation  Ediel_sol  =         0.00000000
  ---------------------------------------------------
  free energy    TOTEN  =        -6.97845029 eV

  energy without entropy =       -6.97845029  energy(sigma->0) =       -6.97845029


--------------------------------------------------------------------------------------------------------




--------------------------------------- Iteration     12(   9)  ---------------------------------------


    POTLOK:  cpu time      0.0644: real time      0.0657
    SETDIJ:  cpu time      0.0881: real time      0.0887
     EDDAV:  cpu time      0.2963: real time      0.2992
       DOS:  cpu time      0.0005: real time      0.0005
    CHARGE:  cpu time      0.0536: real time      0.0546
    MIXING:  cpu time      0.0026: real time      0.0026
    --------------------------------------------
      LOOP:  cpu time      0.5054: real time      0.5114

 eigenvalue-minimisations  :    96
 total energy-change (2. order) :-0.8006986E-06  (-0.1187658E-08)
 number of electron       2.0000000 magnetization 
 augmentation part        0.0417324 magnetization 

 Broyden mixing:
  rms(total) = 0.56839E-05    rms(broyden)= 0.19997E-05
  rms(prec ) = 0.42444E-05
  weight for this iteration     100.00
  WARNING: grid for Broyden might be to small

 eigenvalues of (default mixing * dielectric matrix)
  average eigenvalue GAMMA=   2.5327
  6.1730  3.5186  2.7927  2.3528  2.2325  1.0017  1.0146  1.1759

 Free energy of the ion-electron system (eV)
  ---------------------------------------------------
  alpha Z        PSCENC =         0.00121808
  Ewald energy   TEWEN  =        15.17917677
  -Hartree energ DENC   =       -31.58497338
  -exchange      EXHF   =         0.00000000
  -V(xc)+E(xc)   XCENC  =         5.19462904
  PAW double counting   =        24.43966104      -24.49300085
  entropy T*S    EENTRO =        -0.00000000
  eigenvalues    EBANDS =       -20.78222022
  atomic energy  EATOM  =        25.06705842
  Solvation  Ediel_sol  =         0.00000000
  ---------------------------------------------------
  free energy    TOTEN  =        -6.97845109 eV

  energy without entropy =       -6.97845109  energy(sigma->0) =       -6.97845109


--------------------------------------------------------------------------------------------------------




--------------------------------------- Iteration     12(  10)  ---------------------------------------


    POTLOK:  cpu time      0.0652: real time      0.0663
    SETDIJ:  cpu time      0.0875: real time      0.0881
     EDDAV:  cpu time      0.2298: real time      0.2324
       DOS:  cpu time      0.0006: real time      0.0006
    CHARGE:  cpu time      0.0537: real time      0.0548
    MIXING:  cpu time      0.0026: real time      0.0026
    --------------------------------------------
      LOOP:  cpu time      0.4393: real time      0.4449

 eigenvalue-minimisations  :    96
 total energy-change (2. order) :-0.2705094E-06  (-0.2373497E-09)
 number of electron       2.0000000 magnetization 
 augmentation part        0.0417324 magnetization 

 Broyden mixing:
  rms(total) = 0.55450E-05    rms(broyden)= 0.15618E-05
  rms(prec ) = 0.27226E-05
  weight for this iteration     100.00
  WARNING: grid for Broyden might be to small

 eigenvalues of (default mixing * dielectric matrix)
  average eigenvalue GAMMA=   2.8018
  7.4381  4.4363  2.9169  2.5788  2.5788  2.2210  0.9963  1.0030  1.0471

 Free energy of the ion-electron system (eV)
  ---------------------------------------------------
  alpha Z        PSCENC =         0.00121808
  Ewald energy   TEWEN  =        15.17917677
  -Hartree energ DENC   =       -31.58497282
  -exchange      EXHF   =         0.00000000
  -V(xc)+E(xc)   XCENC  =         5.19462877
  PAW double counting   =        24.43965946      -24.49299928
  entropy T*S    EENTRO =        -0.00000000
  eigenvalues    EBANDS =       -20.78222076
  atomic energy  EATOM  =        25.06705842
  Solvation  Ediel_sol  =         0.00000000
  ---------------------------------------------------
  free energy    TOTEN  =        -6.97845136 eV

  energy without entropy =       -6.97845136  energy(sigma->0) =       -6.97845136


--------------------------------------------------------------------------------------------------------




--------------------------------------- Iteration     12(  11)  ---------------------------------------


    POTLOK:  cpu time      0.0644: real time      0.0658
    SETDIJ:  cpu time      0.1154: real time      0.1162
     EDDAV:  cpu time      0.4377: real time      0.4411
       DOS:  cpu time      0.0006: real time      0.0007
    CHARGE:  cpu time      0.0537: real time      0.0548
    MIXING:  cpu time      0.0030: real time      0.0030
    --------------------------------------------
      LOOP:  cpu time      0.6749: real time      0.6816

 eigenvalue-minimisations  :    96
 total energy-change (2. order) :-0.1989273E-06  (-0.1383889E-09)
 number of electron       2.0000000 magnetization 
 augmentation part        0.0417324 magnetization 

 Broyden mixing:
  rms(total) = 0.53943E-05    rms(broyden)= 0.88962E-06
  rms(prec ) = 0.12722E-05
  weight for this iteration     100.00
  WARNING: grid for Broyden might be to small

 eigenvalues of (default mixing * dielectric matrix)
  average eigenvalue GAMMA=   2.6761
  7.7107  4.5330  3.1795  2.6968  2.4081  0.9737  1.0225  1.0052  1.7306  1.5008

 Free energy of the ion-electron system (eV)
  ---------------------------------------------------
  alpha Z        PSCENC =         0.00121808
  Ewald energy   TEWEN  =        15.17917677
  -Hartree energ DENC   =       -31.58497155
  -exchange      EXHF   =         0.00000000
  -V(xc)+E(xc)   XCENC  =         5.19462841
  PAW double counting   =        24.43966877      -24.49300859
  entropy T*S    EENTRO =        -0.00000000
  eigenvalues    EBANDS =       -20.78222188
  atomic energy  EATOM  =        25.06705842
  Solvation  Ediel_sol  =         0.00000000
  ---------------------------------------------------
  free energy    TOTEN  =        -6.97845156 eV

  energy without entropy =       -6.97845156  energy(sigma->0) =       -6.97845156


--------------------------------------------------------------------------------------------------------




--------------------------------------- Iteration     12(  12)  ---------------------------------------


    POTLOK:  cpu time      0.0680: real time      0.0692
    SETDIJ:  cpu time      0.0888: real time      0.0895
     EDDAV:  cpu time      0.4133: real time      0.4172
       DOS:  cpu time      0.0006: real time      0.0006
    --------------------------------------------
      LOOP:  cpu time      0.5707: real time      0.5766

 eigenvalue-minimisations  :   128
 total energy-change (2. order) :-0.4512810E-07  (-0.9062973E-11)
 number of electron       2.0000000 magnetization 
 augmentation part        0.0417324 magnetization 

 Free energy of the ion-electron system (eV)
  ---------------------------------------------------
  alpha Z        PSCENC =         0.00121808
  Ewald energy   TEWEN  =        15.17917677
  -Hartree energ DENC   =       -31.58497263
  -exchange      EXHF   =         0.00000000
  -V(xc)+E(xc)   XCENC  =         5.19462854
  PAW double counting   =        24.43967143      -24.49301125
  entropy T*S    EENTRO =        -0.00000000
  eigenvalues    EBANDS =       -20.78222095
  atomic energy  EATOM  =        25.06705842
  Solvation  Ediel_sol  =         0.00000000
  ---------------------------------------------------
  free energy    TOTEN  =        -6.97845160 eV

  energy without entropy =       -6.97845160  energy(sigma->0) =       -6.97845160


--------------------------------------------------------------------------------------------------------




 average (electrostatic) potential at core
  the test charge radii are     0.5201
  (the norm of the test charge is              1.0000)
       1 -41.7987       2 -41.7985



 E-fermi : -10.3210     XC(G=0):  -0.0659     alpha+bet : -0.0069

 val. band max:      -10.3911104773   @ k =   0.0000   0.0000   0.0000
 cond. band min:      -0.0590122800   @ k =   0.0000   0.0000   0.0000
 fundamental gap:     10.3320981973
 Fermi energy:       -10.3209863417

 k-point     1 :       0.0000    0.0000    0.0000
  band No.  band energies     occupation 
      1     -10.3911      2.00000
      2      -0.0590      0.00000
      3       0.1113      0.00000
      4       0.2347      0.00000
      5       0.3110      0.00000
      6       0.3116      0.00000
      7       0.3558      0.00000
      8       0.3564      0.00000
      9       0.4410      0.00000
     10       0.5993      0.00000
     11       0.5998      0.00000
     12       0.6321      0.00000
     13       0.7253      0.00000
     14       0.7273      0.00000
     15       0.7277      0.00000
     16       0.7315      0.00000
     17       0.7342      0.00000
     18       0.7355      0.00000
     19       0.7370      0.00000
     20       0.7405      0.00000
     21       0.8733      0.00000
     22       1.0058      0.00000
     23       1.0059      0.00000
     24       1.0701      0.00000
     25       1.1008      0.00000
     26       1.1011      0.00000
     27       1.1042      0.00000
     28       1.1117      0.00000
     29       1.2040      0.00000
     30       1.3430      0.00000
     31       1.3434      0.00000
     32       1.4609      0.00000


--------------------------------------------------------------------------------------------------------


 soft charge-density along one line, spin component           1
         0         1         2         3         4         5         6         7         8         9
 total charge-density along one line

 pseudopotential strength for first ion, spin component:           1
 -2.344  -4.040  -0.000  -0.000  -0.009
 -4.040  -6.877  -0.000  -0.001  -0.019
 -0.000  -0.000  -0.343  -0.000   0.000
 -0.000  -0.001  -0.000  -0.343   0.001
 -0.009  -0.019   0.000   0.001  -0.321
 total augmentation occupancy for first ion, spin component:           1
  3.114  -0.484  -0.000   0.010   0.380
 -0.484   0.075   0.000  -0.002  -0.059
 -0.000   0.000   0.000  -0.000  -0.000
  0.010  -0.002  -0.000   0.000   0.001
  0.380  -0.059  -0.000   0.001   0.046


------------------------ aborting loop because EDIFF is reached ----------------------------------------


    CHARGE:  cpu time      0.0546: real time      0.0552
    FORLOC:  cpu time      0.0010: real time      0.0010
    FORNL :  cpu time      0.2413: real time      0.2442
    STRESS:  cpu time      0.8472: real time      0.8576
    FORHAR:  cpu time      0.0152: real time      0.0154
    MIXING:  cpu time      0.0020: real time      0.0021
    OFIELD:  cpu time      0.0000: real time      0.0000

 ---------------------------------------------------------------------------------------------

         DFTD3 V3.0 Rev 1        
 Edisp (eV)   -0.00000

 E6    (eV) :    -0.0000
 E8    (eV) :    -0.0000
 % E8        :  4.58
    FORVDW:  cpu time      0.0078: real time      0.0080

  FORCE on cell =-STRESS in cart. coord.  units (eV):
  Direction    XX          YY          ZZ          XY          YZ          ZX
  --------------------------------------------------------------------------------------
  Alpha Z     0.00122     0.00122     0.00122
  Ewald      17.89132    -1.36296    -1.34917     0.00000     0.00000     0.51500
  Hartree    12.02915     9.77711     9.77872     0.00000    -0.00000     0.06010
  E(xc)      -5.83914    -6.13655    -6.13633    -0.00000    -0.00000     0.00796
  Local     -31.90571   -18.28698   -18.29674    -0.00000     0.00000    -0.36400
  n-local    -6.41474    -5.44741    -5.44811     0.00000    -0.00000    -0.02589
  augment     0.20200     0.27233     0.27230    -0.00000     0.00000    -0.00189
  Kinetic    13.87232    21.06333    21.05818    -0.00000     0.00000    -0.19246
  Fock        0.00000     0.00000     0.00000     0.00000     0.00000     0.00000
  vdW         0.00003    -0.00000    -0.00000     0.00000     0.00000     0.00000
  -------------------------------------------------------------------------------------
  Total      -0.16355    -0.11992    -0.11995    -0.00000     0.00000    -0.00117
  in kB      -0.03275    -0.02402    -0.02402    -0.00000     0.00000    -0.00023
  external pressure =       -0.03 kB  Pullay stress =        0.00 kB


 VOLUME and BASIS-vectors are now :
 -----------------------------------------------------------------------------
  energy-cutoff  :      400.00
  volume of cell :     8000.00
      direct lattice vectors                 reciprocal lattice vectors
    20.000000000  0.000000000  0.000000000     0.050000000  0.000000000  0.000000000
     0.000000000 20.000000000  0.000000000     0.000000000  0.050000000  0.000000000
     0.000000000  0.000000000 20.000000000     0.000000000  0.000000000  0.050000000

  length of vectors
    20.000000000 20.000000000 20.000000000     0.050000000  0.050000000  0.050000000


 FORCES acting on ions
    electron-ion (+dipol)            ewald-force                    non-local-force                 convergence-correction
 -----------------------------------------------------------------------------------------------
   0.207E+02 0.166E-05 0.553E+00   -.258E+02 -.509E-08 -.689E+00   0.510E+01 0.590E-06 0.136E+00   0.321E-05 -.163E-05 -.154E-05
   -.207E+02 0.157E-05 -.553E+00   0.258E+02 0.509E-08 0.689E+00   -.510E+01 0.416E-06 -.137E+00   0.297E-05 -.141E-05 -.132E-05
 -----------------------------------------------------------------------------------------------
   -.973E-05 0.323E-05 -.237E-03   0.000E+00 -.168E-18 0.000E+00   0.736E-05 0.101E-05 -.188E-03   0.618E-05 -.304E-05 -.286E-05


 POSITION                                       TOTAL-FORCE (eV/Angst)
 -----------------------------------------------------------------------------------
      9.62636     10.00000     10.00000         0.010686      0.000000      0.000419
     10.37364     10.00000     10.02000        -0.010686     -0.000000     -0.000419
 -----------------------------------------------------------------------------------
    total drift:                                0.000004      0.000001     -0.000427


--------------------------------------------------------------------------------------------------------



  FREE ENERGIE OF THE ION-ELECTRON SYSTEM (eV)
  ---------------------------------------------------
  free  energy   TOTEN  =        -6.97845604 eV

  energy  without entropy=       -6.97845604  energy(sigma->0) =       -6.97845604

 d Force =-0.1090896E-06[-0.837E-05, 0.815E-05]  d Energy =-0.1599360E-06 0.508E-07
 d Force = 0.2103135E-08[ 0.138E-01,-0.138E-01]  d Ewald  = 0.2105303E-08-0.217E-11


--------------------------------------------------------------------------------------------------------


    POTLOK:  cpu time      0.1505: real time      0.1519


--------------------------------------------------------------------------------------------------------


 Finite differences progress:
  Degree of freedom:   6/  6
  Displacement:        1/  2
  Total:              11/ 12
    WAVPRE:  cpu time      0.0046: real time      0.0056
    FEWALD:  cpu time      0.0003: real time      0.0003
    ORTHCH:  cpu time      0.0127: real time      0.0131
     LOOP+:  cpu time      7.0070: real time      7.0931


--------------------------------------- Ionic step       13  -------------------------------------------




--------------------------------------- Iteration     13(   1)  ---------------------------------------


    POTLOK:  cpu time      0.0645: real time      0.0660
    SETDIJ:  cpu time      0.0887: real time      0.0894
     EDDAV:  cpu time      0.1607: real time      0.1627
       DOS:  cpu time      0.0008: real time      0.0009
    CHARGE:  cpu time      0.0531: real time      0.0542
    MIXING:  cpu time      0.0030: real time      0.0030
    --------------------------------------------
      LOOP:  cpu time      0.3710: real time      0.3761

 eigenvalue-minimisations  :    64
 total energy-change (2. order) :-0.5935585E-04  (-0.5731364E-01)
 number of electron       2.0000000 magnetization 
 augmentation part        0.0416928 magnetization 

 Broyden mixing:
  rms(total) = 0.19948E-01    rms(broyden)= 0.19905E-01
  rms(prec ) = 0.20900E-01
  weight for this iteration     100.00

 Free energy of the ion-electron system (eV)
  ---------------------------------------------------
  alpha Z        PSCENC =         0.00121808
  Ewald energy   TEWEN  =        15.17917677
  -Hartree energ DENC   =       -31.58227516
  -exchange      EXHF   =         0.00000000
  -V(xc)+E(xc)   XCENC  =         5.19451670
  PAW double counting   =        24.43966645      -24.49300627
  entropy T*S    EENTRO =        -0.00000000
  eigenvalues    EBANDS =       -20.78486591
  atomic energy  EATOM  =        25.06705842
  Solvation  Ediel_sol  =         0.00000000
  ---------------------------------------------------
  free energy    TOTEN  =        -6.97851091 eV

  energy without entropy =       -6.97851091  energy(sigma->0) =       -6.97851091


--------------------------------------------------------------------------------------------------------




--------------------------------------- Iteration     13(   2)  ---------------------------------------


    POTLOK:  cpu time      0.0648: real time      0.0655
    SETDIJ:  cpu time      0.0887: real time      0.0894
     EDDAV:  cpu time      0.2229: real time      0.2255
       DOS:  cpu time      0.0006: real time      0.0006
    CHARGE:  cpu time      0.0539: real time      0.0549
    MIXING:  cpu time      0.0018: real time      0.0018
    --------------------------------------------
      LOOP:  cpu time      0.4327: real time      0.4377

 eigenvalue-minimisations  :    96
 total energy-change (2. order) : 0.1692697E-03  (-0.1811602E-03)
 number of electron       2.0000000 magnetization 
 augmentation part        0.0417335 magnetization 

 Broyden mixing:
  rms(total) = 0.11879E-01    rms(broyden)= 0.11873E-01
  rms(prec ) = 0.12426E-01
  weight for this iteration     100.00

 eigenvalues of (default mixing * dielectric matrix)
  average eigenvalue GAMMA=   2.4218
  2.4218

 Free energy of the ion-electron system (eV)
  ---------------------------------------------------
  alpha Z        PSCENC =         0.00121808
  Ewald energy   TEWEN  =        15.17917677
  -Hartree energ DENC   =       -31.58034632
  -exchange      EXHF   =         0.00000000
  -V(xc)+E(xc)   XCENC  =         5.19417457
  PAW double counting   =        24.44338422      -24.49669057
  entropy T*S    EENTRO =        -0.00000000
  eigenvalues    EBANDS =       -20.78631682
  atomic energy  EATOM  =        25.06705842
  Solvation  Ediel_sol  =         0.00000000
  ---------------------------------------------------
  free energy    TOTEN  =        -6.97834164 eV

  energy without entropy =       -6.97834164  energy(sigma->0) =       -6.97834164


--------------------------------------------------------------------------------------------------------




--------------------------------------- Iteration     13(   3)  ---------------------------------------


    POTLOK:  cpu time      0.0641: real time      0.0653
    SETDIJ:  cpu time      0.0877: real time      0.0883
     EDDAV:  cpu time      0.2308: real time      0.2334
       DOS:  cpu time      0.0006: real time      0.0006
    CHARGE:  cpu time      0.0556: real time      0.0567
    MIXING:  cpu time      0.0019: real time      0.0020
    --------------------------------------------
      LOOP:  cpu time      0.4407: real time      0.4463

 eigenvalue-minimisations  :    96
 total energy-change (2. order) :-0.6968557E-04  (-0.3981288E-04)
 number of electron       2.0000000 magnetization 
 augmentation part        0.0417320 magnetization 

 Broyden mixing:
  rms(total) = 0.51552E-03    rms(broyden)= 0.51187E-03
  rms(prec ) = 0.57197E-03
  weight for this iteration     100.00

 eigenvalues of (default mixing * dielectric matrix)
  average eigenvalue GAMMA=   1.7482
  1.0549  2.4415

 Free energy of the ion-electron system (eV)
  ---------------------------------------------------
  alpha Z        PSCENC =         0.00121808
  Ewald energy   TEWEN  =        15.17917677
  -Hartree energ DENC   =       -31.58573496
  -exchange      EXHF   =         0.00000000
  -V(xc)+E(xc)   XCENC  =         5.19476408
  PAW double counting   =        24.44539575      -24.49873888
  entropy T*S    EENTRO =        -0.00000000
  eigenvalues    EBANDS =       -20.78155060
  atomic energy  EATOM  =        25.06705842
  Solvation  Ediel_sol  =         0.00000000
  ---------------------------------------------------
  free energy    TOTEN  =        -6.97841133 eV

  energy without entropy =       -6.97841133  energy(sigma->0) =       -6.97841133


--------------------------------------------------------------------------------------------------------




--------------------------------------- Iteration     13(   4)  ---------------------------------------


    POTLOK:  cpu time      0.0655: real time      0.0669
    SETDIJ:  cpu time      0.0880: real time      0.0887
     EDDAV:  cpu time      0.2396: real time      0.2423
       DOS:  cpu time      0.0007: real time      0.0008
    CHARGE:  cpu time      0.0557: real time      0.0564
    MIXING:  cpu time      0.0025: real time      0.0025
    --------------------------------------------
      LOOP:  cpu time      0.4520: real time      0.4575

 eigenvalue-minimisations  :    96
 total energy-change (2. order) :-0.7833924E-05  (-0.7379101E-07)
 number of electron       2.0000000 magnetization 
 augmentation part        0.0417321 magnetization 

 Broyden mixing:
  rms(total) = 0.30513E-03    rms(broyden)= 0.30482E-03
  rms(prec ) = 0.35564E-03
  weight for this iteration     100.00

 eigenvalues of (default mixing * dielectric matrix)
  average eigenvalue GAMMA=   2.0854
  1.0002  2.4350  2.8209

 Free energy of the ion-electron system (eV)
  ---------------------------------------------------
  alpha Z        PSCENC =         0.00121808
  Ewald energy   TEWEN  =        15.17917677
  -Hartree energ DENC   =       -31.58549649
  -exchange      EXHF   =         0.00000000
  -V(xc)+E(xc)   XCENC  =         5.19472269
  PAW double counting   =        24.44298121      -24.49632282
  entropy T*S    EENTRO =        -0.00000000
  eigenvalues    EBANDS =       -20.78175702
  atomic energy  EATOM  =        25.06705842
  Solvation  Ediel_sol  =         0.00000000
  ---------------------------------------------------
  free energy    TOTEN  =        -6.97841916 eV

  energy without entropy =       -6.97841916  energy(sigma->0) =       -6.97841916


--------------------------------------------------------------------------------------------------------




--------------------------------------- Iteration     13(   5)  ---------------------------------------


    POTLOK:  cpu time      0.0676: real time      0.0688
    SETDIJ:  cpu time      0.0883: real time      0.0889
     EDDAV:  cpu time      0.2309: real time      0.2336
       DOS:  cpu time      0.0006: real time      0.0006
    CHARGE:  cpu time      0.0570: real time      0.0580
    MIXING:  cpu time      0.0021: real time      0.0021
    --------------------------------------------
      LOOP:  cpu time      0.4466: real time      0.4522

 eigenvalue-minimisations  :    96
 total energy-change (2. order) :-0.1394822E-04  (-0.2424842E-06)
 number of electron       2.0000000 magnetization 
 augmentation part        0.0417325 magnetization 

 Broyden mixing:
  rms(total) = 0.57157E-04    rms(broyden)= 0.56756E-04
  rms(prec ) = 0.84850E-04
  weight for this iteration     100.00

 eigenvalues of (default mixing * dielectric matrix)
  average eigenvalue GAMMA=   2.1365
  1.0024  2.9162  2.3136  2.3136

 Free energy of the ion-electron system (eV)
  ---------------------------------------------------
  alpha Z        PSCENC =         0.00121808
  Ewald energy   TEWEN  =        15.17917677
  -Hartree energ DENC   =       -31.58499542
  -exchange      EXHF   =         0.00000000
  -V(xc)+E(xc)   XCENC  =         5.19464057
  PAW double counting   =        24.43918607      -24.49252479
  entropy T*S    EENTRO =        -0.00000000
  eigenvalues    EBANDS =       -20.78219281
  atomic energy  EATOM  =        25.06705842
  Solvation  Ediel_sol  =         0.00000000
  ---------------------------------------------------
  free energy    TOTEN  =        -6.97843311 eV

  energy without entropy =       -6.97843311  energy(sigma->0) =       -6.97843311


--------------------------------------------------------------------------------------------------------




--------------------------------------- Iteration     13(   6)  ---------------------------------------


    POTLOK:  cpu time      0.0616: real time      0.0639
    SETDIJ:  cpu time      0.0886: real time      0.0893
     EDDAV:  cpu time      0.2269: real time      0.2294
       DOS:  cpu time      0.0005: real time      0.0005
    CHARGE:  cpu time      0.0541: real time      0.0552
    MIXING:  cpu time      0.0023: real time      0.0023
    --------------------------------------------
      LOOP:  cpu time      0.4340: real time      0.4406

 eigenvalue-minimisations  :    96
 total energy-change (2. order) :-0.8937176E-05  (-0.6728887E-07)
 number of electron       2.0000000 magnetization 
 augmentation part        0.0417324 magnetization 

 Broyden mixing:
  rms(total) = 0.34493E-04    rms(broyden)= 0.34073E-04
  rms(prec ) = 0.48554E-04
  weight for this iteration     100.00

 eigenvalues of (default mixing * dielectric matrix)
  average eigenvalue GAMMA=   2.0045
  3.2580  2.4377  2.4377  0.9966  0.8926

 Free energy of the ion-electron system (eV)
  ---------------------------------------------------
  alpha Z        PSCENC =         0.00121808
  Ewald energy   TEWEN  =        15.17917677
  -Hartree energ DENC   =       -31.58508716
  -exchange      EXHF   =         0.00000000
  -V(xc)+E(xc)   XCENC  =         5.19464985
  PAW double counting   =        24.43983819      -24.49317855
  entropy T*S    EENTRO =        -0.00000000
  eigenvalues    EBANDS =       -20.78211765
  atomic energy  EATOM  =        25.06705842
  Solvation  Ediel_sol  =         0.00000000
  ---------------------------------------------------
  free energy    TOTEN  =        -6.97844205 eV

  energy without entropy =       -6.97844205  energy(sigma->0) =       -6.97844205


--------------------------------------------------------------------------------------------------------




--------------------------------------- Iteration     13(   7)  ---------------------------------------


    POTLOK:  cpu time      0.0635: real time      0.0642
    SETDIJ:  cpu time      0.0885: real time      0.0892
     EDDAV:  cpu time      0.3082: real time      0.3115
       DOS:  cpu time      0.0005: real time      0.0005
    CHARGE:  cpu time      0.0542: real time      0.0554
    MIXING:  cpu time      0.0024: real time      0.0024
    --------------------------------------------
      LOOP:  cpu time      0.5174: real time      0.5232

 eigenvalue-minimisations  :   128
 total energy-change (2. order) :-0.2607592E-05  (-0.7763418E-08)
 number of electron       2.0000000 magnetization 
 augmentation part        0.0417324 magnetization 

 Broyden mixing:
  rms(total) = 0.19055E-04    rms(broyden)= 0.18297E-04
  rms(prec ) = 0.31039E-04
  weight for this iteration     100.00

 eigenvalues of (default mixing * dielectric matrix)
  average eigenvalue GAMMA=   2.2671
  4.2714  0.9963  1.0082  2.8562  2.4044  2.0659

 Free energy of the ion-electron system (eV)
  ---------------------------------------------------
  alpha Z        PSCENC =         0.00121808
  Ewald energy   TEWEN  =        15.17917677
  -Hartree energ DENC   =       -31.58504796
  -exchange      EXHF   =         0.00000000
  -V(xc)+E(xc)   XCENC  =         5.19464302
  PAW double counting   =        24.43977271      -24.49311295
  entropy T*S    EENTRO =        -0.00000000
  eigenvalues    EBANDS =       -20.78215275
  atomic energy  EATOM  =        25.06705842
  Solvation  Ediel_sol  =         0.00000000
  ---------------------------------------------------
  free energy    TOTEN  =        -6.97844466 eV

  energy without entropy =       -6.97844466  energy(sigma->0) =       -6.97844466


--------------------------------------------------------------------------------------------------------




--------------------------------------- Iteration     13(   8)  ---------------------------------------


    POTLOK:  cpu time      0.0629: real time      0.0644
    SETDIJ:  cpu time      0.0994: real time      0.1002
     EDDAV:  cpu time      0.1614: real time      0.1633
       DOS:  cpu time      0.0006: real time      0.0006
    CHARGE:  cpu time      0.0545: real time      0.0556
    MIXING:  cpu time      0.0024: real time      0.0024
    --------------------------------------------
      LOOP:  cpu time      0.3812: real time      0.3864

 eigenvalue-minimisations  :    64
 total energy-change (2. order) :-0.4533055E-05  (-0.2740593E-07)
 number of electron       2.0000000 magnetization 
 augmentation part        0.0417324 magnetization 

 Broyden mixing:
  rms(total) = 0.94453E-05    rms(broyden)= 0.78034E-05
  rms(prec ) = 0.13718E-04
  weight for this iteration     100.00
  WARNING: grid for Broyden might be to small

 eigenvalues of (default mixing * dielectric matrix)
  average eigenvalue GAMMA=   2.3013
  4.8393  2.9729  2.3063  2.3063  0.9984  1.0386  1.6473

 Free energy of the ion-electron system (eV)
  ---------------------------------------------------
  alpha Z        PSCENC =         0.00121808
  Ewald energy   TEWEN  =        15.17917677
  -Hartree energ DENC   =       -31.58497260
  -exchange      EXHF   =         0.00000000
  -V(xc)+E(xc)   XCENC  =         5.19463019
  PAW double counting   =        24.43968656      -24.49302631
  entropy T*S    EENTRO =        -0.00000000
  eigenvalues    EBANDS =       -20.78222031
  atomic energy  EATOM  =        25.06705842
  Solvation  Ediel_sol  =         0.00000000
  ---------------------------------------------------
  free energy    TOTEN  =        -6.97844919 eV

  energy without entropy =       -6.97844919  energy(sigma->0) =       -6.97844919


--------------------------------------------------------------------------------------------------------




--------------------------------------- Iteration     13(   9)  ---------------------------------------


    POTLOK:  cpu time      0.0648: real time      0.0662
    SETDIJ:  cpu time      0.0880: real time      0.0889
     EDDAV:  cpu time      0.3024: real time      0.3056
       DOS:  cpu time      0.0006: real time      0.0006
    CHARGE:  cpu time      0.0551: real time      0.0563
    MIXING:  cpu time      0.0024: real time      0.0024
    --------------------------------------------
      LOOP:  cpu time      0.5132: real time      0.5199

 eigenvalue-minimisations  :   128
 total energy-change (2. order) :-0.1348541E-05  (-0.2041364E-08)
 number of electron       2.0000000 magnetization 
 augmentation part        0.0417324 magnetization 

 Broyden mixing:
  rms(total) = 0.65542E-05    rms(broyden)= 0.38282E-05
  rms(prec ) = 0.73662E-05
  weight for this iteration     100.00
  WARNING: grid for Broyden might be to small

 eigenvalues of (default mixing * dielectric matrix)
  average eigenvalue GAMMA=   2.4439
  5.9341  3.3893  2.7630  2.4205  1.9711  0.9939  1.0099  1.0695

 Free energy of the ion-electron system (eV)
  ---------------------------------------------------
  alpha Z        PSCENC =         0.00121808
  Ewald energy   TEWEN  =        15.17917677
  -Hartree energ DENC   =       -31.58497020
  -exchange      EXHF   =         0.00000000
  -V(xc)+E(xc)   XCENC  =         5.19462905
  PAW double counting   =        24.43966773      -24.49300750
  entropy T*S    EENTRO =        -0.00000000
  eigenvalues    EBANDS =       -20.78222289
  atomic energy  EATOM  =        25.06705842
  Solvation  Ediel_sol  =         0.00000000
  ---------------------------------------------------
  free energy    TOTEN  =        -6.97845054 eV

  energy without entropy =       -6.97845054  energy(sigma->0) =       -6.97845054


--------------------------------------------------------------------------------------------------------




--------------------------------------- Iteration     13(  10)  ---------------------------------------


    POTLOK:  cpu time      0.0637: real time      0.0652
    SETDIJ:  cpu time      0.0874: real time      0.0883
     EDDAV:  cpu time      0.2267: real time      0.2293
       DOS:  cpu time      0.0005: real time      0.0010
    CHARGE:  cpu time      0.0572: real time      0.0578
    MIXING:  cpu time      0.0024: real time      0.0024
    --------------------------------------------
      LOOP:  cpu time      0.4380: real time      0.4440

 eigenvalue-minimisations  :    96
 total energy-change (2. order) :-0.6077055E-06  (-0.8988223E-09)
 number of electron       2.0000000 magnetization 
 augmentation part        0.0417324 magnetization 

 Broyden mixing:
  rms(total) = 0.58199E-05    rms(broyden)= 0.23601E-05
  rms(prec ) = 0.41899E-05
  weight for this iteration     100.00
  WARNING: grid for Broyden might be to small

 eigenvalues of (default mixing * dielectric matrix)
  average eigenvalue GAMMA=   2.6975
  7.1611  4.2110  2.8734  2.4821  2.4821  2.0282  0.9805  1.0029  1.0557

 Free energy of the ion-electron system (eV)
  ---------------------------------------------------
  alpha Z        PSCENC =         0.00121808
  Ewald energy   TEWEN  =        15.17917677
  -Hartree energ DENC   =       -31.58497117
  -exchange      EXHF   =         0.00000000
  -V(xc)+E(xc)   XCENC  =         5.19462876
  PAW double counting   =        24.43965369      -24.49299350
  entropy T*S    EENTRO =        -0.00000000
  eigenvalues    EBANDS =       -20.78222220
  atomic energy  EATOM  =        25.06705842
  Solvation  Ediel_sol  =         0.00000000
  ---------------------------------------------------
  free energy    TOTEN  =        -6.97845115 eV

  energy without entropy =       -6.97845115  energy(sigma->0) =       -6.97845115


--------------------------------------------------------------------------------------------------------




--------------------------------------- Iteration     13(  11)  ---------------------------------------


    POTLOK:  cpu time      0.0626: real time      0.0642
    SETDIJ:  cpu time      0.0881: real time      0.0888
     EDDAV:  cpu time      0.4008: real time      0.4041
       DOS:  cpu time      0.0034: real time      0.0035
    CHARGE:  cpu time      0.1218: real time      0.1232
    MIXING:  cpu time      0.0199: real time      0.0200
    --------------------------------------------
      LOOP:  cpu time      0.6967: real time      0.7037

 eigenvalue-minimisations  :    96
 total energy-change (2. order) :-0.3390468E-06  (-0.2884519E-09)
 number of electron       2.0000000 magnetization 
 augmentation part        0.0417324 magnetization 

 Broyden mixing:
  rms(total) = 0.55064E-05    rms(broyden)= 0.14209E-05
  rms(prec ) = 0.20367E-05
  weight for this iteration     100.00
  WARNING: grid for Broyden might be to small

 eigenvalues of (default mixing * dielectric matrix)
  average eigenvalue GAMMA=   2.6561
  7.6622  4.4910  3.1546  2.6889  2.3987  1.8163  0.9745  1.0054  1.0397  1.3295

 Free energy of the ion-electron system (eV)
  ---------------------------------------------------
  alpha Z        PSCENC =         0.00121808
  Ewald energy   TEWEN  =        15.17917677
  -Hartree energ DENC   =       -31.58497131
  -exchange      EXHF   =         0.00000000
  -V(xc)+E(xc)   XCENC  =         5.19462847
  PAW double counting   =        24.43967224      -24.49301206
  entropy T*S    EENTRO =        -0.00000000
  eigenvalues    EBANDS =       -20.78222211
  atomic energy  EATOM  =        25.06705842
  Solvation  Ediel_sol  =         0.00000000
  ---------------------------------------------------
  free energy    TOTEN  =        -6.97845148 eV

  energy without entropy =       -6.97845148  energy(sigma->0) =       -6.97845148


--------------------------------------------------------------------------------------------------------




--------------------------------------- Iteration     13(  12)  ---------------------------------------


    POTLOK:  cpu time      0.2430: real time      0.2455
    SETDIJ:  cpu time      0.1114: real time      0.1122
     EDDAV:  cpu time      0.8053: real time      0.8109
       DOS:  cpu time      0.0259: real time      0.0261
    --------------------------------------------
      LOOP:  cpu time      1.1855: real time      1.1947

 eigenvalue-minimisations  :   128
 total energy-change (2. order) :-0.9035967E-07  (-0.3906209E-10)
 number of electron       2.0000000 magnetization 
 augmentation part        0.0417324 magnetization 

 Free energy of the ion-electron system (eV)
  ---------------------------------------------------
  alpha Z        PSCENC =         0.00121808
  Ewald energy   TEWEN  =        15.17917677
  -Hartree energ DENC   =       -31.58497356
  -exchange      EXHF   =         0.00000000
  -V(xc)+E(xc)   XCENC  =         5.19462873
  PAW double counting   =        24.43967919      -24.49301903
  entropy T*S    EENTRO =        -0.00000000
  eigenvalues    EBANDS =       -20.78222017
  atomic energy  EATOM  =        25.06705842
  Solvation  Ediel_sol  =         0.00000000
  ---------------------------------------------------
  free energy    TOTEN  =        -6.97845158 eV

  energy without entropy =       -6.97845158  energy(sigma->0) =       -6.97845158


--------------------------------------------------------------------------------------------------------




 average (electrostatic) potential at core
  the test charge radii are     0.5201
  (the norm of the test charge is              1.0000)
       1 -41.7987       2 -41.7985



 E-fermi : -10.3210     XC(G=0):  -0.0665     alpha+bet : -0.0069

 val. band max:      -10.3911100872   @ k =   0.0000   0.0000   0.0000
 cond. band min:      -0.0595143871   @ k =   0.0000   0.0000   0.0000
 fundamental gap:     10.3315957001
 Fermi energy:       -10.3209891223

 k-point     1 :       0.0000    0.0000    0.0000
  band No.  band energies     occupation 
      1     -10.3911      2.00000
      2      -0.0595      0.00000
      3       0.1112      0.00000
      4       0.2342      0.00000
      5       0.3102      0.00000
      6       0.3113      0.00000
      7       0.3550      0.00000
      8       0.3563      0.00000
      9       0.4403      0.00000
     10       0.5987      0.00000
     11       0.5992      0.00000
     12       0.6316      0.00000
     13       0.7237      0.00000
     14       0.7265      0.00000
     15       0.7271      0.00000
     16       0.7298      0.00000
     17       0.7338      0.00000
     18       0.7363      0.00000
     19       0.7376      0.00000
     20       0.7388      0.00000
     21       0.8727      0.00000
     22       1.0047      0.00000
     23       1.0061      0.00000
     24       1.0696      0.00000
     25       1.0992      0.00000
     26       1.1004      0.00000
     27       1.1045      0.00000
     28       1.1105      0.00000
     29       1.2036      0.00000
     30       1.3418      0.00000
     31       1.3440      0.00000
     32       1.4603      0.00000


--------------------------------------------------------------------------------------------------------


 soft charge-density along one line, spin component           1
         0         1         2         3         4         5         6         7         8         9
 total charge-density along one line

 pseudopotential strength for first ion, spin component:           1
 -2.344  -4.040   0.000   0.000  -0.009
 -4.040  -6.877   0.000   0.001  -0.019
  0.000   0.000  -0.343  -0.000   0.000
  0.000   0.001  -0.000  -0.343  -0.001
 -0.009  -0.019   0.000  -0.001  -0.321
 total augmentation occupancy for first ion, spin component:           1
  3.114  -0.484   0.000  -0.010   0.380
 -0.484   0.075  -0.000   0.002  -0.059
  0.000  -0.000   0.000  -0.000   0.000
 -0.010   0.002  -0.000   0.000  -0.001
  0.380  -0.059   0.000  -0.001   0.046


------------------------ aborting loop because EDIFF is reached ----------------------------------------


    CHARGE:  cpu time      0.0909: real time      0.0917
    FORLOC:  cpu time      0.0024: real time      0.0025
    FORNL :  cpu time      0.2455: real time      0.2484
    STRESS:  cpu time      0.8447: real time      0.8548
    FORHAR:  cpu time      0.0587: real time      0.0591
    MIXING:  cpu time      0.0181: real time      0.0183
    OFIELD:  cpu time      0.0001: real time      0.0001

 ---------------------------------------------------------------------------------------------

         DFTD3 V3.0 Rev 1        
 Edisp (eV)   -0.00000

 E6    (eV) :    -0.0000
 E8    (eV) :    -0.0000
 % E8        :  4.58
    FORVDW:  cpu time      0.0080: real time      0.0082

  FORCE on cell =-STRESS in cart. coord.  units (eV):
  Direction    XX          YY          ZZ          XY          YZ          ZX
  --------------------------------------------------------------------------------------
  Alpha Z     0.00122     0.00122     0.00122
  Ewald      17.89132    -1.36296    -1.34917     0.00000    -0.00000    -0.51500
  Hartree    12.02915     9.77711     9.77872     0.00000     0.00000    -0.06010
  E(xc)      -5.83914    -6.13655    -6.13633     0.00000     0.00000    -0.00796
  Local     -31.90571   -18.28698   -18.29674    -0.00000     0.00000     0.36400
  n-local    -6.41474    -5.44741    -5.44811     0.00000     0.00000     0.02589
  augment     0.20200     0.27233     0.27230     0.00000     0.00000     0.00189
  Kinetic    13.87232    21.06333    21.05818    -0.00000    -0.00000     0.19246
  Fock        0.00000     0.00000     0.00000     0.00000     0.00000     0.00000
  vdW         0.00003    -0.00000    -0.00000     0.00000    -0.00000    -0.00000
  -------------------------------------------------------------------------------------
  Total      -0.16355    -0.11992    -0.11995     0.00000     0.00000     0.00117
  in kB      -0.03275    -0.02402    -0.02402     0.00000     0.00000     0.00024
  external pressure =       -0.03 kB  Pullay stress =        0.00 kB


 VOLUME and BASIS-vectors are now :
 -----------------------------------------------------------------------------
  energy-cutoff  :      400.00
  volume of cell :     8000.00
      direct lattice vectors                 reciprocal lattice vectors
    20.000000000  0.000000000  0.000000000     0.050000000  0.000000000  0.000000000
     0.000000000 20.000000000  0.000000000     0.000000000  0.050000000  0.000000000
     0.000000000  0.000000000 20.000000000     0.000000000  0.000000000  0.050000000

  length of vectors
    20.000000000 20.000000000 20.000000000     0.050000000  0.050000000  0.050000000


 FORCES acting on ions
    electron-ion (+dipol)            ewald-force                    non-local-force                 convergence-correction
 -----------------------------------------------------------------------------------------------
   0.207E+02 -.837E-08 -.553E+00   -.258E+02 -.509E-08 0.689E+00   0.510E+01 0.122E-07 -.136E+00   0.431E-05 0.151E-07 0.331E-05
   -.207E+02 -.156E-07 0.553E+00   0.258E+02 0.509E-08 -.689E+00   -.510E+01 -.174E-07 0.137E+00   0.311E-05 0.157E-07 0.292E-05
 -----------------------------------------------------------------------------------------------
   -.113E-04 -.240E-07 0.233E-03   0.000E+00 -.168E-18 0.000E+00   0.676E-05 -.516E-08 0.187E-03   0.743E-05 0.309E-07 0.622E-05


 POSITION                                       TOTAL-FORCE (eV/Angst)
 -----------------------------------------------------------------------------------
      9.62636     10.00000     10.00000         0.010685      0.000000     -0.000418
     10.37364     10.00000      9.98000        -0.010685     -0.000000      0.000418
 -----------------------------------------------------------------------------------
    total drift:                                0.000003      0.000000      0.000426


--------------------------------------------------------------------------------------------------------



  FREE ENERGIE OF THE ION-ELECTRON SYSTEM (eV)
  ---------------------------------------------------
  free  energy   TOTEN  =        -6.97845601 eV

  energy  without entropy=       -6.97845601  energy(sigma->0) =       -6.97845601

 d Force = 0.1585980E-07[-0.167E-04, 0.167E-04]  d Energy =-0.2779725E-07 0.437E-07
 d Force =-0.3998453E-08[ 0.276E-01,-0.276E-01]  d Ewald  =-0.4007056E-08 0.860E-11


--------------------------------------------------------------------------------------------------------


    POTLOK:  cpu time      0.8647: real time      0.8688


--------------------------------------------------------------------------------------------------------


 Finite differences progress:
  Degree of freedom:   6/  6
  Displacement:        2/  2
  Total:              12/ 12

 SECOND DERIVATIVES (NOT SYMMETRIZED)
 ------------------------------------
               1X          1Y          1Z          2X          2Y          2Z 
  1X   -34.545522   -0.000001   -0.000004   34.545522    0.000001    0.000004
  1Y    -0.000001   -0.020375    0.000000    0.000001    0.020375   -0.000000
  1Z     0.000011   -0.000001   -0.020908   -0.000011    0.000001    0.020908
  2X    34.545456    0.000000   -0.000001  -34.545456   -0.000000    0.000001
  2Y     0.000015    0.020424   -0.000001   -0.000015   -0.020424    0.000001
  2Z     0.000014    0.000000    0.020908   -0.000014   -0.000000   -0.020908


 Eigenvectors and eigenvalues of the dynamical matrix
 ----------------------------------------------------


   1 f  =  129.945545 THz   816.471941 2PiTHz 4334.516822 cm-1   537.411351 meV
             X         Y         Z           dx          dy          dz
      9.626360 10.000000 10.000000    -0.707107   -0.000000    0.000000  
     10.373640 10.000000 10.000000     0.707106    0.000000    0.000000  

   2 f  =    3.196858 THz    20.086450 2PiTHz  106.635700 cm-1    13.221136 meV
             X         Y         Z           dx          dy          dz
      9.626360 10.000000 10.000000    -0.000039   -0.000064   -0.707110  
     10.373640 10.000000 10.000000    -0.000039    0.000053    0.707104  

   3 f  =    3.157766 THz    19.840827 2PiTHz  105.331723 cm-1    13.059463 meV
             X         Y         Z           dx          dy          dz
      9.626360 10.000000 10.000000    -0.000002   -0.706683    0.000048  
     10.373640 10.000000 10.000000    -0.000002    0.707530   -0.000069  

   4 f/i=    0.000028 THz     0.000175 2PiTHz    0.000930 cm-1     0.000115 meV
             X         Y         Z           dx          dy          dz
      9.626360 10.000000 10.000000     0.022603   -0.017231   -0.706533  
     10.373640 10.000000 10.000000     0.022603   -0.017232   -0.706537  

   5 f/i=    0.000185 THz     0.001165 2PiTHz    0.006183 cm-1     0.000767 meV
             X         Y         Z           dx          dy          dz
      9.626360 10.000000 10.000000     0.706741    0.002958    0.022499  
     10.373640 10.000000 10.000000     0.706742    0.002959    0.022576  

   6 f/i=    0.001891 THz     0.011884 2PiTHz    0.063088 cm-1     0.007822 meV
             X         Y         Z           dx          dy          dz
      9.626360 10.000000 10.000000    -0.002407    0.707314   -0.017322  
     10.373640 10.000000 10.000000    -0.002407    0.706467   -0.017312  

 Finite differences POTIM=   2.0000000000000000E-002
     LOOP+:  cpu time      8.5443: real time      8.6442
    4ORBIT:  cpu time      0.0000: real time      0.0000

 total amount of memory used by VASP MPI-rank0    64572. kBytes
=======================================================================

   base      :      30000. kBytes
   nonl-proj :       2615. kBytes
   fftplans  :      18019. kBytes
   grid      :      13356. kBytes
   one-center:          1. kBytes
   wavefun   :        581. kBytes

  
  
 General timing and accounting informations for this job:
 ========================================================
  
                  Total CPU time used (sec):      106.549
                            User time (sec):       92.988
                          System time (sec):       13.561
                         Elapsed time (sec):      115.272
  
                   Maximum memory used (kb):      530684.
                   Average memory used (kb):          N/A
  
                          Minor page faults:       463132
                          Major page faults:           11
                 Voluntary context switches:        41202
