 H  O Pt                                
   1.0000000000000000     
     8.4637688330671441    0.0000000000000000    0.0000000000000005
    -4.2318844165335747    7.3298388211951195    0.0000000000000005
     0.0000000000000000    0.0000000000000000   34.5531915698098757
  H               O               Pt            
     1     2    54
Selective dynamics
Direct
  0.4802336799183117  0.2120755686935634  0.7391261898098941   T   T   T
  0.3462452253556905  0.1581758046257046  0.7394771809834838   T   T   T
  0.3251323501138437  0.3093083606802879  0.7264636820101236   T   T   T
  0.8888888888888857  0.7777777777777786  0.6000000000000014   F   F   F
  0.3333333333333357  0.0000000000000000  0.4666666666666686   F   F   F
  0.4444444444444429  0.8888888888888857  0.3333333333333357   F   F   F
  0.5555555555555571  0.7777777777777786  0.3999999999999986   F   F   F
  0.3300463556940076  0.9932766647379826  0.6664165880452063   T   T   T
  0.4444444444444429  0.8888888888888857  0.5333333333333314   F   F   F
  0.5555555555555571  0.7777777777777786  0.6000000000000014   F   F   F
  0.6666666666666643  0.3333333333333357  0.4666666666666686   F   F   F
  0.7777777777777786  0.2222222222222214  0.3333333333333357   F   F   F
  0.8888888888888857  0.1111111111111143  0.3999999999999986   F   F   F
  0.6688939657810373  0.3300808230209532  0.6661261951772252   T   T   T
  0.7777777777777786  0.2222222222222214  0.5333333333333314   F   F   F
  0.8888888888888857  0.1111111111111143  0.6000000000000014   F   F   F
  0.7777777777777786  0.5555555555555571  0.3333333333333357   F   F   F
  0.8888888888888857  0.4444444444444429  0.3999999999999986   F   F   F
  0.6660250779501322  0.6629419954001555  0.6664134768605889   T   T   T
  0.7777777777777786  0.5555555555555571  0.5333333333333314   F   F   F
  0.8888888888888857  0.4444444444444429  0.6000000000000014   F   F   F
  0.6666666666666643  0.0000000000000000  0.4666666666666686   F   F   F
  0.7777777777777786  0.8888888888888857  0.3333333333333357   F   F   F
  0.8888888888888857  0.7777777777777786  0.3999999999999986   F   F   F
  0.6637423874871168  0.9948745573191060  0.6668664268480466   T   T   T
  0.7777777777777786  0.8888888888888857  0.5333333333333314   F   F   F
  0.5555555555555571  0.4444444444444429  0.6000000000000014   F   F   F
  0.6666666666666643  0.6666666666666643  0.4666666666666686   F   F   F
  0.0000000000000000  0.3333333333333357  0.4666666666666686   F   F   F
  0.5555555555555571  0.4444444444444429  0.3999999999999986   F   F   F
  0.1111111111111143  0.2222222222222214  0.3333333333333357   F   F   F
  0.2222222222222214  0.1111111111111143  0.3999999999999986   F   F   F
  0.9965138709075765  0.3289292233028021  0.6664087051384137   T   T   T
  0.1111111111111143  0.2222222222222214  0.5333333333333314   F   F   F
  0.2222222222222214  0.1111111111111143  0.6000000000000014   F   F   F
  0.0000000000000000  0.6666666666666643  0.4666666666666686   F   F   F
  0.1111111111111143  0.5555555555555571  0.3333333333333357   F   F   F
  0.2222222222222214  0.4444444444444429  0.3999999999999986   F   F   F
  0.9978426210725364  0.6617910689024405  0.6670436622857834   T   T   T
  0.1111111111111143  0.5555555555555571  0.5333333333333314   F   F   F
  0.2222222222222214  0.4444444444444429  0.6000000000000014   F   F   F
  0.0000000000000000  0.0000000000000000  0.4666666666666686   F   F   F
  0.1111111111111143  0.8888888888888857  0.3333333333333357   F   F   F
  0.2222222222222214  0.7777777777777786  0.3999999999999986   F   F   F
  0.9940831869080177  0.9929378206697577  0.6660377355374446   T   T   T
  0.1111111111111143  0.8888888888888857  0.5333333333333314   F   F   F
  0.2222222222222214  0.7777777777777786  0.6000000000000014   F   F   F
  0.3333333333333357  0.3333333333333357  0.4666666666666686   F   F   F
  0.4444444444444429  0.2222222222222214  0.3333333333333357   F   F   F
  0.5555555555555571  0.1111111111111143  0.3999999999999986   F   F   F
  0.3329279275372669  0.3280666455049920  0.6683642620886380   T   T   T
  0.4444444444444429  0.2222222222222214  0.5333333333333314   F   F   F
  0.5555555555555571  0.1111111111111143  0.6000000000000014   F   F   F
  0.3333333333333357  0.6666666666666643  0.4666666666666686   F   F   F
  0.4444444444444429  0.5555555555555571  0.3333333333333357   F   F   F
  0.3305551579845689  0.6619699537454710  0.6663695727289264   T   T   T
  0.4444444444444429  0.5555555555555571  0.5333333333333314   F   F   F

  0.00000000E+00  0.00000000E+00  0.00000000E+00
  0.00000000E+00  0.00000000E+00  0.00000000E+00
  0.00000000E+00  0.00000000E+00  0.00000000E+00
  0.00000000E+00  0.00000000E+00  0.00000000E+00
  0.00000000E+00  0.00000000E+00  0.00000000E+00
  0.00000000E+00  0.00000000E+00  0.00000000E+00
  0.00000000E+00  0.00000000E+00  0.00000000E+00
  0.00000000E+00  0.00000000E+00  0.00000000E+00
  0.00000000E+00  0.00000000E+00  0.00000000E+00
  0.00000000E+00  0.00000000E+00  0.00000000E+00
  0.00000000E+00  0.00000000E+00  0.00000000E+00
  0.00000000E+00  0.00000000E+00  0.00000000E+00
  0.00000000E+00  0.00000000E+00  0.00000000E+00
  0.00000000E+00  0.00000000E+00  0.00000000E+00
  0.00000000E+00  0.00000000E+00  0.00000000E+00
  0.00000000E+00  0.00000000E+00  0.00000000E+00
  0.00000000E+00  0.00000000E+00  0.00000000E+00
  0.00000000E+00  0.00000000E+00  0.00000000E+00
  0.00000000E+00  0.00000000E+00  0.00000000E+00
  0.00000000E+00  0.00000000E+00  0.00000000E+00
  0.00000000E+00  0.00000000E+00  0.00000000E+00
  0.00000000E+00  0.00000000E+00  0.00000000E+00
  0.00000000E+00  0.00000000E+00  0.00000000E+00
  0.00000000E+00  0.00000000E+00  0.00000000E+00
  0.00000000E+00  0.00000000E+00  0.00000000E+00
  0.00000000E+00  0.00000000E+00  0.00000000E+00
  0.00000000E+00  0.00000000E+00  0.00000000E+00
  0.00000000E+00  0.00000000E+00  0.00000000E+00
  0.00000000E+00  0.00000000E+00  0.00000000E+00
  0.00000000E+00  0.00000000E+00  0.00000000E+00
  0.00000000E+00  0.00000000E+00  0.00000000E+00
  0.00000000E+00  0.00000000E+00  0.00000000E+00
  0.00000000E+00  0.00000000E+00  0.00000000E+00
  0.00000000E+00  0.00000000E+00  0.00000000E+00
  0.00000000E+00  0.00000000E+00  0.00000000E+00
  0.00000000E+00  0.00000000E+00  0.00000000E+00
  0.00000000E+00  0.00000000E+00  0.00000000E+00
  0.00000000E+00  0.00000000E+00  0.00000000E+00
  0.00000000E+00  0.00000000E+00  0.00000000E+00
  0.00000000E+00  0.00000000E+00  0.00000000E+00
  0.00000000E+00  0.00000000E+00  0.00000000E+00
  0.00000000E+00  0.00000000E+00  0.00000000E+00
  0.00000000E+00  0.00000000E+00  0.00000000E+00
  0.00000000E+00  0.00000000E+00  0.00000000E+00
  0.00000000E+00  0.00000000E+00  0.00000000E+00
  0.00000000E+00  0.00000000E+00  0.00000000E+00
  0.00000000E+00  0.00000000E+00  0.00000000E+00
  0.00000000E+00  0.00000000E+00  0.00000000E+00
  0.00000000E+00  0.00000000E+00  0.00000000E+00
  0.00000000E+00  0.00000000E+00  0.00000000E+00
  0.00000000E+00  0.00000000E+00  0.00000000E+00
  0.00000000E+00  0.00000000E+00  0.00000000E+00
  0.00000000E+00  0.00000000E+00  0.00000000E+00
  0.00000000E+00  0.00000000E+00  0.00000000E+00
  0.00000000E+00  0.00000000E+00  0.00000000E+00
  0.00000000E+00  0.00000000E+00  0.00000000E+00
  0.00000000E+00  0.00000000E+00  0.00000000E+00
