 vasp.6.4.3 19Mar24 (build Oct 31 2024 19:09:51) complex                         
 executed on             LinuxGNU date 2026.03.16  20:23:02
 running   64 mpi-ranks, with    1 threads/rank, on    1 nodes
 distrk:  each k-point on   64 cores,    1 groups
 distr:  one band on NCORE=   4 cores,   16 groups


--------------------------------------------------------------------------------------------------------


 INCAR:
   SYSTEM = Bare Pt 111 (RPBE-D3)
   PREC = Normal
   ENCUT = 400
   EDIFF = 1E-6
   EDIFFG = -0.02
   GGA = RP
   IVDW = 11
   ISPIN = 1
   NELM = 100
   ISMEAR = 0
   SIGMA = 0.1
   IBRION = 2
   NSW = 100
   ISIF = 2
   ISYM = 0
   LREAL = Auto
   ALGO = All
   LWAVE = .FALSE.
   LCHARG = .FALSE.
   NCORE = 4
   LASPH = .TRUE.
   AMIN = 0.01

 POTCAR:    PAW_PBE H 15Jun2001                   
 POTCAR:    PAW_PBE H 15Jun2001                   
   VRHFIN =H: ultrasoft test                                                                        
   LEXCH  = PE                                                                                      
   EATOM  =    12.4884 eV,    0.9179 Ry                                                             
                                                                                                    
   TITEL  = PAW_PBE H 15Jun2001                                                                     
   LULTRA =        F    use ultrasoft PP ?                                                          
   IUNSCR =        0    unscreen: 0-lin 1-nonlin 2-no                                               
   RPACOR =    0.000    partial core radius                                                         
   POMASS =    1.000; ZVAL   =    1.000    mass and valenz                                          
   RCORE  =    1.100    outmost cutoff radius                                                       
   RWIGS  =    0.700; RWIGS  =    0.370    wigner-seitz radius (au A)                               
   ENMAX  =  250.000; ENMIN  =  200.000 eV                                                          
   RCLOC  =    0.701    cutoff for local pot                                                        
   LCOR   =        T    correct aug charges                                                         
   LPAW   =        T    paw PP                                                                      
   EAUG   =  400.000                                                                                
   RMAX   =    1.123    core radius for proj-oper                                                   
   RAUG   =    1.200    factor for augmentation sphere                                              
   RDEP   =    1.112    radius for radial grids                                                     
   RDEPT  =    0.926    core radius for aug-charge                                                  
                                                                                                    
   Atomic configuration                                                                             
    2 entries                                                                                       
     n  l   j            E        occ.                                                              
     1  0  0.50        -6.4927   1.0000                                                             
     2  1  0.50        -3.4015   0.0000                                                             
   Description                                                                                      
     l       E           TYP  RCUT    TYP  RCUT                                                     
     0     -6.4927494     23  1.100                                                                 
     0      6.8029130     23  1.100                                                                 
     1     -4.0817478     23  1.100                                                                 
  local pseudopotential read in
  atomic valenz-charges read in
  non local Contribution for L=           0  read in
    real space projection operators read in
  non local Contribution for L=           0  read in
    real space projection operators read in
  non local Contribution for L=           1  read in
    real space projection operators read in
    PAW grid and wavefunctions read in

   number of l-projection  operators is LMAX  =           3
   number of lm-projection operators is LMMAX =           5

 -----------------------------------------------------------------------------
|                                                                             |
|               ----> ADVICE to this user running VASP <----                  |
|                                                                             |
|     You have a (more or less) 'small supercell' and for smaller cells       |
|     it is recommended to use the reciprocal-space projection scheme!        |
|     The real-space optimization is not efficient for small cells and it     |
|     is also less accurate ...                                               |
|     Therefore, set LREAL=.FALSE. in the INCAR file.                         |
|                                                                             |
 -----------------------------------------------------------------------------

 Optimization of the real space projectors (new method)

 maximal supplied QI-value         = 34.20
 optimisation between [QCUT,QGAM] = [  9.92, 20.18] = [ 27.55,114.04] Ry 
 Optimized for a Real-space Cutoff    1.26 Angstroem

   l    n(q)    QCUT    max X(q) W(low)/X(q) W(high)/X(q)  e(spline) 
   0      8     9.919    19.460    0.50E-03    0.23E-03    0.29E-06
   0      8     9.919    12.209    0.48E-03    0.23E-03    0.28E-06
   1      7     9.919     4.655    0.17E-03    0.75E-03    0.30E-06
 -----------------------------------------------------------------------------
|                                                                             |
|               ----> ADVICE to this user running VASP <----                  |
|                                                                             |
|     You enforced a specific xc type in the INCAR file but a different       |
|     type was found in the POTCAR file.                                      |
|     I HOPE YOU KNOW WHAT YOU ARE DOING!                                     |
|                                                                             |
 -----------------------------------------------------------------------------

  PAW_PBE H 15Jun2001                   :
 energy of atom  1       EATOM=  -12.4884
 kinetic energy error for atom=    0.0098 (will be added to EATOM!!)


 POSCAR:  H
  positions in direct lattice
  velocities in cartesian coordinates
 IVDW         = 11
 VDW_S6       =    1.0000
 VDW_S8       =    0.5140
 VDW_SR       =    0.8720
 VDW_RADIUS   =   50.2022 A
 VDW_CNRADIUS =   21.1671 A


 exchange-correlation table for RP
   RHO(1)=    0.500       N(1)  =     2000
   RHO(2)=  100.500       N(2)  =     4000



--------------------------------------------------------------------------------------------------------


 ion  position               nearest neighbor table
   1  0.481  0.500  0.500-   2 0.75
   2  0.519  0.500  0.500-   1 0.75


IMPORTANT INFORMATION: All symmetrisations will be switched off!
NOSYMM: (Re-)initialisation of all symmetry stuff for point group C_1.


----------------------------------------------------------------------------------------

                                     Primitive cell                                     

  volume of cell :    8000.0000

  direct lattice vectors                    reciprocal lattice vectors
    20.000000000  0.000000000  0.000000000     0.050000000  0.000000000  0.000000000
     0.000000000 20.000000000  0.000000000     0.000000000  0.050000000  0.000000000
     0.000000000  0.000000000 20.000000000     0.000000000  0.000000000  0.050000000

  length of vectors
    20.000000000 20.000000000 20.000000000     0.050000000  0.050000000  0.050000000

  position of ions in fractional coordinates (direct lattice)
     0.481296478  0.500000000  0.500000000
     0.518703522  0.500000000  0.500000000

  ion indices of the primitive-cell ions
   primitive index   ion index
                 1           1
                 2           2

----------------------------------------------------------------------------------------



 KPOINTS: Regular 4 x 4 x 1 mesh centered at Gamma

Automatic generation of k-mesh.
 Grid dimensions read from file:
 generate k-points for:    1    1    1

 Generating k-lattice:

  Cartesian coordinates                     Fractional coordinates (reciprocal lattice)
     0.050000000  0.000000000  0.000000000     1.000000000  0.000000000  0.000000000
     0.000000000  0.050000000  0.000000000     0.000000000  1.000000000  0.000000000
     0.000000000  0.000000000  0.050000000     0.000000000  0.000000000  1.000000000

  Length of vectors
     0.050000000  0.050000000  0.050000000

  Shift w.r.t. Gamma in fractional coordinates (k-lattice)
     0.000000000  0.000000000  0.000000000

 
 Subroutine IBZKPT returns following result:
 ===========================================
 
 Found      1 irreducible k-points:
 
 Following reciprocal coordinates:
            Coordinates               Weight
  0.000000  0.000000  0.000000      1.000000
 
 Following cartesian coordinates:
            Coordinates               Weight
  0.000000  0.000000  0.000000      1.000000
 


--------------------------------------------------------------------------------------------------------




 Dimension of arrays:
   k-points           NKPTS =      1   k-points in BZ     NKDIM =      1   number of bands    NBANDS=     16
   number of dos      NEDOS =    301   number of ions     NIONS =      2
   non local maximal  LDIM  =      3   non local SUM 2l+1 LMDIM =      5
   total plane-waves  NPLWV = 941192
   max r-space proj   IRMAX =   1043   max aug-charges    IRDMAX=    771
   dimension x,y,z NGX =    98 NGY =   98 NGZ =   98
   dimension x,y,z NGXF=   196 NGYF=  196 NGZF=  196
   support grid    NGXF=   196 NGYF=  196 NGZF=  196
   ions per type =               2
   NGX,Y,Z   is equivalent  to a cutoff of   8.15,  8.15,  8.15 a.u.
   NGXF,Y,Z  is equivalent  to a cutoff of  16.29, 16.29, 16.29 a.u.

 SYSTEM =  Bare Pt 111 (RPBE-D3)                   
 POSCAR =   H                                      

 Startparameter for this run:
   NWRITE =      2    write-flag & timer
   PREC   = normal    normal or accurate (medium, high low for compatibility)
   ISTART =      0    job   : 0-new  1-cont  2-samecut
   ICHARG =      2    charge: 1-file 2-atom 10-const
   ISPIN  =      1    spin polarized calculation?
   LNONCOLLINEAR =      F non collinear calculations
   LSORBIT =      F    spin-orbit coupling
   INIWAV =      1    electr: 0-lowe 1-rand  2-diag
   LASPH  =      T    aspherical Exc in radial PAW
 Electronic Relaxation 1
   ENCUT  =  400.0 eV  29.40 Ry    5.42 a.u.  32.61 32.61 32.61*2*pi/ulx,y,z
   ENINI  =  400.0     initial cutoff
   ENAUG  =  400.0 eV  augmentation charge cutoff
   NELM   =    100;   NELMIN=  2; NELMDL= -5     # of ELM steps 
   EDIFF  = 0.1E-05   stopping-criterion for ELM
   LREAL  =      T    real-space projection
   NLSPLINE    = F    spline interpolate recip. space projectors
   LCOMPAT=      F    compatible to vasp.4.4
   GGA_COMPAT  = T    GGA compatible to vasp.4.4-vasp.4.6
   LMAXPAW     = -100 max onsite density
   LMAXMIX     =    2 max onsite mixed and CHGCAR
   VOSKOWN=      0    Vosko Wilk Nusair interpolation
   ROPT   =   -0.00050
 Ionic relaxation
   EDIFFG = -.2E-01   stopping-criterion for IOM
   NSW    =    100    number of steps for IOM
   NBLOCK =      1;   KBLOCK =    100    inner block; outer block 
   IBRION =      2    ionic relax: 0-MD 1-quasi-New 2-CG
   NFREE  =      1    steps in history (QN), initial steepest desc. (CG)
   ISIF   =      2    stress and relaxation
   IWAVPR =     11    prediction:  0-non 1-charg 2-wave 3-comb
   ISYM   =      0    0-nonsym 1-usesym 2-fastsym
   LCORR  =      T    Harris-Foulkes like correction to forces

   POTIM  = 0.5000    time-step for ionic-motion
   TEIN   =    0.0    initial temperature
   TEBEG  =    0.0;   TEEND  =   0.0 temperature during run
   SMASS  =  -3.00    Nose mass-parameter (am)
   estimated Nose-frequenzy (Omega)   =  0.10E-29 period in steps = 0.13E+47 mass=  -0.914E-26a.u.
   SCALEE = 1.0000    scale energy and forces
   NPACO  =    256;   APACO  = 10.0  distance and # of slots for P.C.
   PSTRESS=    0.0 pullay stress

  Mass of Ions in am
   POMASS =   1.00
  Ionic Valenz
   ZVAL   =   1.00
  Atomic Wigner-Seitz radii
   RWIGS  =  -1.00
  virtual crystal weights 
   VCA    =   1.00
   NELECT =       2.0000    total number of electrons
   NUPDOWN=      -1.0000    fix difference up-down

 DOS related values:
   EMIN   =  10.00;   EMAX   =-10.00  energy-range for DOS
   EFERMI =   0.00;   METHOD = LEGACY      
   ISMEAR =     0;   SIGMA  =   0.10  broadening in eV -4-tet -1-fermi 0-gaus

 Electronic relaxation 2 (details)
   IALGO  =     58    algorithm
   LDIAG  =      T    sub-space diagonalisation (order eigenvalues)
   LSUBROT=      F    optimize rotation matrix (better conditioning)
   TURBO    =      0    0=normal 1=particle mesh
   IRESTART =      0    0=no restart 2=restart with 2 vectors
   NREBOOT  =      0    no. of reboots
   NMIN     =      0    reboot dimension
   EREF     =   0.00    reference energy to select bands
   IMIX   =      4    mixing-type and parameters
     AMIX     =   0.40;   BMIX     =  1.00
     AMIX_MAG =   1.60;   BMIX_MAG =  1.00
     AMIN     =   0.01
     WC   =   100.;   INIMIX=   1;  MIXPRE=   1;  MAXMIX= -45

 Intra band minimization:
   WEIMIN = 0.0010     energy-eigenvalue tresh-hold
   EBREAK =  0.16E-07  absolut break condition
   DEPER  =   0.30     relativ break condition  

   TIME   =   0.40     timestep for ELM

  volume/ion in A,a.u.               =    4000.00     26993.33
  Fermi-wavevector in a.u.,A,eV,Ry     =   0.103131  0.194889  0.144711  0.010636
  Thomas-Fermi vector in A             =   0.684775

 Write flags
   LWAVE        =      F    write WAVECAR
   LDOWNSAMPLE  =      F    k-point downsampling of WAVECAR
   LCHARG       =      F    write CHGCAR
   LVTOT        =      F    write LOCPOT, total local potential
   LVHAR        =      F    write LOCPOT, Hartree potential only
   WRT_POTENTIAL= false  ! write potential to hdf5 file
   LELF         =      F    write electronic localiz. function (ELF)
   LORBIT       =      0    0 simple, 1 ext, 2 COOP (PROOUT), +10 PAW based schemes


 Dipole corrections
   LMONO      =      F    monopole corrections only (constant potential shift)
   LDIPOL     =      F    correct potential (dipole corrections)
   IDIPOL     =      0    1-x, 2-y, 3-z, 4-all directions 
   EPSILON    =  1.0000000 bulk dielectric constant
   LVACPOTAV  =      F  vacuum potentials using an averaging scheme for the charge density
   VACPOTFLAT =  0.1000000 required flatness to determine vacuum potential
 Exchange correlation treatment:
   GGA     = RP    functional components
   XC_C    = 1    coefficients multiplying the functional components
   LIBXC   =     F    Libxc                    
   VOSKOWN =     0    Vosko Wilk Nusair interpolation
   LHFCALC =     F    Hartree Fock is set to
   LHFONE  =     F    Hartree Fock one center treatment
   AEXX    =    0.0000 exact exchange contribution

 Parameters of functionals:
   RP:
     No parameter

 Van der Waals corrections
   IVDW    =    11    specifies the selected vdW correction

 Linear response parameters
   LEPSILON=     F    determine dielectric tensor
   LRPA    =     F    only Hartree local field effects (RPA)
   LNABLA  =     F    use nabla operator in PAW spheres
   LVEL    =     F    velocity operator in full k-point grid
   CSHIFT  =0.1000    complex shift for real part using Kramers Kronig
   OMEGAMAX=  -1.0    maximum frequency
   DEG_THRESHOLD= 0.2000000E-02 threshold for treating states as degnerate
   RTIME   =   -0.100 relaxation time in fs
  (WPLASMAI=    0.000 imaginary part of plasma frequency in eV, 0.658/RTIME)
   DFIELD  = 0.0000000 0.0000000 0.0000000 field for delta impulse in time

  Optional k-point grid parameters
   LKPOINTS_OPT  =     F    use optional k-point grid
   KPOINTS_OPT_MODE=     1    mode for optional k-point grid

 Orbital magnetization related:
   ORBITALMAG=     F  switch on orbital magnetization
   LCHIMAG   =     F  perturbation theory with respect to B field
   DQ        =  0.001000  dq finite difference perturbation B field
   LLRAUG    =     F  two centre corrections for induced B field
   LBONE     =     F  B-component reconstruction in AE one-centre
   LVGVCALC  =     T  calculate vGv susceptibility
   LVGVAPPL  =     F  apply vGv susceptibility instead of pGv for G=0

 Random number generation:
   RANDOM_GENERATOR = DEFAULT
   PCG_SEED         = not used


--------------------------------------------------------------------------------------------------------


 conjugate gradient relaxation of ions
 charge density and potential will be updated during run
 non-spin polarized calculation
 Conjugate gradient for all bands (Freysoldt, et al. PRB 79, 241103 (2009))
 preconditioned conjugated gradient                                        
 perform sub-space diagonalisation
    before iterative eigenvector-optimisation
 modified Broyden-mixing scheme, WC =      100.0
 initial mixing is a Kerker type mixing with AMIX =  0.4000 and BMIX =      1.0000
 Hartree-type preconditioning will be used
 using additional bands           15
 real space projection scheme for non local part
 no Harris-corrections to forces 
 use gradient corrections 
 use of overlap-Matrix (Vanderbilt PP)
 Gauss-broadening in eV      SIGMA  =   0.10


--------------------------------------------------------------------------------------------------------


  energy-cutoff  :      400.00
  volume of cell :     8000.00
      direct lattice vectors                 reciprocal lattice vectors
    20.000000000  0.000000000  0.000000000     0.050000000  0.000000000  0.000000000
     0.000000000 20.000000000  0.000000000     0.000000000  0.050000000  0.000000000
     0.000000000  0.000000000 20.000000000     0.000000000  0.000000000  0.050000000

  length of vectors
    20.000000000 20.000000000 20.000000000     0.050000000  0.050000000  0.050000000



 k-points in units of 2pi/SCALE and weight: Regular 4 x 4 x 1 mesh centered at Gamma
   0.00000000  0.00000000  0.00000000       1.000

 k-points in reciprocal lattice and weights: Regular 4 x 4 x 1 mesh centered at Gamma
   0.00000000  0.00000000  0.00000000       1.000

 position of ions in fractional coordinates (direct lattice) 
   0.48129648  0.50000000  0.50000000
   0.51870352  0.50000000  0.50000000

 position of ions in cartesian coordinates  (Angst):
   9.62592957 10.00000000 10.00000000
  10.37407043 10.00000000 10.00000000



--------------------------------------------------------------------------------------------------------


 k-point     1 :   0.0000 0.0000 0.0000  plane waves:  145165

 maximum and minimum number of plane-waves per node :     36308    36275

 maximum number of plane-waves:    145165
 maximum index in each direction: 
   IXMAX=   32   IYMAX=   32   IZMAX=   32
   IXMIN=  -32   IYMIN=  -32   IZMIN=  -32


 real space projection operators:
  total allocation   :         75.94 KBytes
  max/ min on nodes  :         20.23         17.11


 parallel 3D FFT for wavefunctions:
    minimum data exchange during FFTs selected (reduces bandwidth)
 parallel 3D FFT for charge:
    minimum data exchange during FFTs selected (reduces bandwidth)


 total amount of memory used by VASP MPI-rank0    61173. kBytes
=======================================================================

   base      :      30000. kBytes
   nonlr-proj:         57. kBytes
   fftplans  :      12303. kBytes
   grid      :      17069. kBytes
   one-center:          1. kBytes
   wavefun   :       1743. kBytes

     INWAV:  cpu time      0.0000: real time      0.0000
 Broyden mixing: mesh for mixing (old mesh)
   NGX = 65   NGY = 65   NGZ = 65
  (NGX  =196   NGY  =196   NGZ  =196)
  gives a total of 274625 points

 initial charge density was supplied:
 charge density of overlapping atoms calculated
 number of electron       2.0000000 magnetization 
 keeping initial charge density in first step


--------------------------------------------------------------------------------------------------------


 Maximum index for non-local projection operator          247
 Maximum index for augmentation-charges            0 (set IRDMAX)


--------------------------------------------------------------------------------------------------------


 First call to EWALD:  gamma=   0.089
 Maximum number of real-space cells 3x 3x 3
 Maximum number of reciprocal cells 3x 3x 3

    FEWALD:  cpu time      0.0010: real time      0.0010


--------------------------------------- Ionic step        1  -------------------------------------------




--------------------------------------- Iteration      1(   1)  ---------------------------------------


    POTLOK:  cpu time      0.1292: real time      0.1309
    SETDIJ:  cpu time      0.0501: real time      0.0509
    TRIAL :  cpu time      0.2043: real time      0.2084
    CORREC:  cpu time      0.0001: real time      0.0001
    --------------------------------------------
      LOOP:  cpu time      0.3861: real time      0.3947

 eigenvalue-minimisations  :    48
 total energy-change (2. order) :-0.2080919E+01  (-0.2393273E+02)
 number of electron       2.0000000 magnetization 
 augmentation part        2.0000000 magnetization 

 Free energy of the ion-electron system (eV)
  ---------------------------------------------------
  alpha Z        PSCENC =         0.00121808
  Ewald energy   TEWEN  =        15.16389402
  -Hartree energ DENC   =       -24.59809476
  -exchange      EXHF   =         0.00000000
  -V(xc)+E(xc)   XCENC  =         4.24390696
  PAW double counting   =         4.09787275       -4.11636859
  entropy T*S    EENTRO =        -0.00000000
  eigenvalues    EBANDS =       -21.94040632
  atomic energy  EATOM  =        25.06705842
  ---------------------------------------------------
  free energy    TOTEN  =        -2.08091944 eV

  energy without entropy =       -2.08091944  energy(sigma->0) =       -2.08091944


--------------------------------------------------------------------------------------------------------




--------------------------------------- Iteration      1(   2)  ---------------------------------------


    TRIAL :  cpu time      0.1476: real time      0.1497
    CORREC:  cpu time      0.0001: real time      0.0001
    --------------------------------------------
      LOOP:  cpu time      0.1489: real time      0.1510

 eigenvalue-minimisations  :    32
 total energy-change (2. order) :-0.5504751E+01  (-0.5504751E+01)
 number of electron       2.0000000 magnetization 
 augmentation part        2.0000000 magnetization 

 Free energy of the ion-electron system (eV)
  ---------------------------------------------------
  alpha Z        PSCENC =         0.00121808
  Ewald energy   TEWEN  =        15.16389402
  -Hartree energ DENC   =       -24.59809476
  -exchange      EXHF   =         0.00000000
  -V(xc)+E(xc)   XCENC  =         4.24390696
  PAW double counting   =         4.09787275       -4.11636859
  entropy T*S    EENTRO =        -0.00000000
  eigenvalues    EBANDS =       -27.44515717
  atomic energy  EATOM  =        25.06705842
  ---------------------------------------------------
  free energy    TOTEN  =        -7.58567028 eV

  energy without entropy =       -7.58567028  energy(sigma->0) =       -7.58567028


--------------------------------------------------------------------------------------------------------




--------------------------------------- Iteration      1(   3)  ---------------------------------------


    TRIAL :  cpu time      0.2008: real time      0.2039
    CORREC:  cpu time      0.0001: real time      0.0001
    --------------------------------------------
      LOOP:  cpu time      0.2015: real time      0.2045

 eigenvalue-minimisations  :    48
 total energy-change (2. order) :-0.9323036E-01  (-0.9323036E-01)
 number of electron       2.0000000 magnetization 
 augmentation part        2.0000000 magnetization 

 Free energy of the ion-electron system (eV)
  ---------------------------------------------------
  alpha Z        PSCENC =         0.00121808
  Ewald energy   TEWEN  =        15.16389402
  -Hartree energ DENC   =       -24.59809476
  -exchange      EXHF   =         0.00000000
  -V(xc)+E(xc)   XCENC  =         4.24390696
  PAW double counting   =         4.09787275       -4.11636859
  entropy T*S    EENTRO =        -0.00000000
  eigenvalues    EBANDS =       -27.53838752
  atomic energy  EATOM  =        25.06705842
  ---------------------------------------------------
  free energy    TOTEN  =        -7.67890064 eV

  energy without entropy =       -7.67890064  energy(sigma->0) =       -7.67890064


--------------------------------------------------------------------------------------------------------




--------------------------------------- Iteration      1(   4)  ---------------------------------------


    TRIAL :  cpu time      0.1545: real time      0.1567
    CORREC:  cpu time      0.0001: real time      0.0001
    --------------------------------------------
      LOOP:  cpu time      0.1549: real time      0.1579

 eigenvalue-minimisations  :    32
 total energy-change (2. order) :-0.4942272E-04  (-0.4942272E-04)
 number of electron       2.0000000 magnetization 
 augmentation part        2.0000000 magnetization 

 Free energy of the ion-electron system (eV)
  ---------------------------------------------------
  alpha Z        PSCENC =         0.00121808
  Ewald energy   TEWEN  =        15.16389402
  -Hartree energ DENC   =       -24.59809476
  -exchange      EXHF   =         0.00000000
  -V(xc)+E(xc)   XCENC  =         4.24390696
  PAW double counting   =         4.09787275       -4.11636859
  entropy T*S    EENTRO =        -0.00000000
  eigenvalues    EBANDS =       -27.53843694
  atomic energy  EATOM  =        25.06705842
  ---------------------------------------------------
  free energy    TOTEN  =        -7.67895006 eV

  energy without entropy =       -7.67895006  energy(sigma->0) =       -7.67895006


--------------------------------------------------------------------------------------------------------




--------------------------------------- Iteration      1(   5)  ---------------------------------------


    TRIAL :  cpu time      0.2637: real time      0.2679
    CORREC:  cpu time      0.0001: real time      0.0001
    CHARGE:  cpu time      0.0285: real time      0.0295
    --------------------------------------------
      LOOP:  cpu time      0.2928: real time      0.2984

 eigenvalue-minimisations  :    64
 total energy-change (2. order) :-0.2587749E-06  (-0.2587802E-06)
 number of electron       2.0000013 magnetization 
 augmentation part        0.0465541 magnetization 

 Free energy of the ion-electron system (eV)
  ---------------------------------------------------
  alpha Z        PSCENC =         0.00121808
  Ewald energy   TEWEN  =        15.16389402
  -Hartree energ DENC   =       -24.59809476
  -exchange      EXHF   =         0.00000000
  -V(xc)+E(xc)   XCENC  =         4.24390696
  PAW double counting   =         4.09787275       -4.11636859
  entropy T*S    EENTRO =        -0.00000000
  eigenvalues    EBANDS =       -27.53843720
  atomic energy  EATOM  =        25.06705842
  ---------------------------------------------------
  free energy    TOTEN  =        -7.67895032 eV

  energy without entropy =       -7.67895032  energy(sigma->0) =       -7.67895032


--------------------------------------------------------------------------------------------------------




--------------------------------------- Iteration      1(   6)  ---------------------------------------


    POTLOK:  cpu time      0.1278: real time      0.1294
    SETDIJ:  cpu time      0.0503: real time      0.0505
    TRIAL :  cpu time      0.0984: real time      0.1019
    CORREC:  cpu time      0.2269: real time      0.2299
    CHARGE:  cpu time      0.0270: real time      0.0274
    --------------------------------------------
      LOOP:  cpu time      0.5312: real time      0.5399

 eigenvalue-minimisations  :     0
 total energy-change (2. order) : 0.9066595E+00  (-0.1743292E+00)
 number of electron       2.0000011 magnetization 
 augmentation part        0.0423550 magnetization 

 Free energy of the ion-electron system (eV)
  ---------------------------------------------------
  alpha Z        PSCENC =         0.00121808
  Ewald energy   TEWEN  =        15.16389402
  -Hartree energ DENC   =       -33.94398843
  -exchange      EXHF   =         0.00000000
  -V(xc)+E(xc)   XCENC  =         5.52803496
  PAW double counting   =        27.75499046      -27.82076966
  entropy T*S    EENTRO =        -0.00000000
  eigenvalues    EBANDS =       -18.52272872
  atomic energy  EATOM  =        25.06705842
  ---------------------------------------------------
  free energy    TOTEN  =        -6.77229085 eV

  energy without entropy =       -6.77229085  energy(sigma->0) =       -6.77229085


--------------------------------------------------------------------------------------------------------




--------------------------------------- Iteration      1(   7)  ---------------------------------------


    POTLOK:  cpu time      0.1254: real time      0.1269
    SETDIJ:  cpu time      0.0504: real time      0.0506
    TRIAL :  cpu time      0.0924: real time      0.0941
    CORREC:  cpu time      0.2253: real time      0.2293
    CHARGE:  cpu time      0.0270: real time      0.0273
    --------------------------------------------
      LOOP:  cpu time      0.5211: real time      0.5288

 eigenvalue-minimisations  :     0
 total energy-change (2. order) :-0.1740907E+00  (-0.1862387E-01)
 number of electron       2.0000011 magnetization 
 augmentation part        0.0416980 magnetization 

 Free energy of the ion-electron system (eV)
  ---------------------------------------------------
  alpha Z        PSCENC =         0.00121808
  Ewald energy   TEWEN  =        15.16389402
  -Hartree energ DENC   =       -31.91785567
  -exchange      EXHF   =         0.00000000
  -V(xc)+E(xc)   XCENC  =         5.23638297
  PAW double counting   =        24.95223150      -25.00754809
  entropy T*S    EENTRO =        -0.00000000
  eigenvalues    EBANDS =       -20.44176282
  atomic energy  EATOM  =        25.06705842
  ---------------------------------------------------
  free energy    TOTEN  =        -6.94638158 eV

  energy without entropy =       -6.94638158  energy(sigma->0) =       -6.94638158


--------------------------------------------------------------------------------------------------------




--------------------------------------- Iteration      1(   8)  ---------------------------------------


    POTLOK:  cpu time      0.1255: real time      0.1269
    SETDIJ:  cpu time      0.0503: real time      0.0505
    TRIAL :  cpu time      0.0926: real time      0.0943
    CORREC:  cpu time      0.2258: real time      0.2292
    CHARGE:  cpu time      0.0269: real time      0.0272
    --------------------------------------------
      LOOP:  cpu time      0.5219: real time      0.5289

 eigenvalue-minimisations  :     0
 total energy-change (2. order) :-0.1891604E-01  (-0.1094397E-01)
 number of electron       2.0000011 magnetization 
 augmentation part        0.0414408 magnetization 

 Free energy of the ion-electron system (eV)
  ---------------------------------------------------
  alpha Z        PSCENC =         0.00121808
  Ewald energy   TEWEN  =        15.16389402
  -Hartree energ DENC   =       -31.74565963
  -exchange      EXHF   =         0.00000000
  -V(xc)+E(xc)   XCENC  =         5.21754839
  PAW double counting   =        24.75662667      -24.81008853
  entropy T*S    EENTRO =        -0.00000000
  eigenvalues    EBANDS =       -20.61589504
  atomic energy  EATOM  =        25.06705842
  ---------------------------------------------------
  free energy    TOTEN  =        -6.96529762 eV

  energy without entropy =       -6.96529762  energy(sigma->0) =       -6.96529762


--------------------------------------------------------------------------------------------------------




--------------------------------------- Iteration      1(   9)  ---------------------------------------


    POTLOK:  cpu time      0.1396: real time      0.1411
    SETDIJ:  cpu time      0.0501: real time      0.0505
    TRIAL :  cpu time      0.0919: real time      0.0937
    CORREC:  cpu time      0.2514: real time      0.2548
    CHARGE:  cpu time      0.0310: real time      0.0313
    --------------------------------------------
      LOOP:  cpu time      0.5649: real time      0.5721

 eigenvalue-minimisations  :     0
 total energy-change (2. order) :-0.1043657E-01  (-0.2157759E-02)
 number of electron       2.0000011 magnetization 
 augmentation part        0.0415795 magnetization 

 Free energy of the ion-electron system (eV)
  ---------------------------------------------------
  alpha Z        PSCENC =         0.00121808
  Ewald energy   TEWEN  =        15.16389402
  -Hartree energ DENC   =       -31.55461148
  -exchange      EXHF   =         0.00000000
  -V(xc)+E(xc)   XCENC  =         5.19327869
  PAW double counting   =        24.40100132      -24.45350000
  entropy T*S    EENTRO =        -0.00000000
  eigenvalues    EBANDS =       -20.79407324
  atomic energy  EATOM  =        25.06705842
  ---------------------------------------------------
  free energy    TOTEN  =        -6.97573419 eV

  energy without entropy =       -6.97573419  energy(sigma->0) =       -6.97573419


--------------------------------------------------------------------------------------------------------




--------------------------------------- Iteration      1(  10)  ---------------------------------------


    POTLOK:  cpu time      0.1272: real time      0.1288
    SETDIJ:  cpu time      0.0504: real time      0.0506
    TRIAL :  cpu time      0.0931: real time      0.0948
    CORREC:  cpu time      0.2231: real time      0.2263
    CHARGE:  cpu time      0.0282: real time      0.0285
    --------------------------------------------
      LOOP:  cpu time      0.5227: real time      0.5298

 eigenvalue-minimisations  :     0
 total energy-change (2. order) :-0.2137946E-02  (-0.5053567E-03)
 number of electron       2.0000011 magnetization 
 augmentation part        0.0416998 magnetization 

 Free energy of the ion-electron system (eV)
  ---------------------------------------------------
  alpha Z        PSCENC =         0.00121808
  Ewald energy   TEWEN  =        15.16389402
  -Hartree energ DENC   =       -31.53261010
  -exchange      EXHF   =         0.00000000
  -V(xc)+E(xc)   XCENC  =         5.18922573
  PAW double counting   =        24.30657054      -24.35933962
  entropy T*S    EENTRO =        -0.00000000
  eigenvalues    EBANDS =       -20.81388921
  atomic energy  EATOM  =        25.06705842
  ---------------------------------------------------
  free energy    TOTEN  =        -6.97787213 eV

  energy without entropy =       -6.97787213  energy(sigma->0) =       -6.97787213


--------------------------------------------------------------------------------------------------------




--------------------------------------- Iteration      1(  11)  ---------------------------------------


    POTLOK:  cpu time      0.1218: real time      0.1231
    SETDIJ:  cpu time      0.0502: real time      0.0504
    TRIAL :  cpu time      0.0928: real time      0.0951
    CORREC:  cpu time      0.2210: real time      0.2246
    CHARGE:  cpu time      0.0265: real time      0.0268
    --------------------------------------------
      LOOP:  cpu time      0.5130: real time      0.5207

 eigenvalue-minimisations  :     0
 total energy-change (2. order) :-0.5060585E-03  (-0.1358431E-03)
 number of electron       2.0000011 magnetization 
 augmentation part        0.0417243 magnetization 

 Free energy of the ion-electron system (eV)
  ---------------------------------------------------
  alpha Z        PSCENC =         0.00121808
  Ewald energy   TEWEN  =        15.16389402
  -Hartree energ DENC   =       -31.55010265
  -exchange      EXHF   =         0.00000000
  -V(xc)+E(xc)   XCENC  =         5.19028867
  PAW double counting   =        24.31389080      -24.36701375
  entropy T*S    EENTRO =        -0.00000000
  eigenvalues    EBANDS =       -20.79761180
  atomic energy  EATOM  =        25.06705842
  ---------------------------------------------------
  free energy    TOTEN  =        -6.97837819 eV

  energy without entropy =       -6.97837819  energy(sigma->0) =       -6.97837819


--------------------------------------------------------------------------------------------------------




--------------------------------------- Iteration      1(  12)  ---------------------------------------


    POTLOK:  cpu time      0.1207: real time      0.1221
    SETDIJ:  cpu time      0.0502: real time      0.0504
    TRIAL :  cpu time      0.0921: real time      0.0940
    CORREC:  cpu time      0.2223: real time      0.2255
    CHARGE:  cpu time      0.0263: real time      0.0267
    --------------------------------------------
      LOOP:  cpu time      0.5125: real time      0.5196

 eigenvalue-minimisations  :     0
 total energy-change (2. order) :-0.1359858E-03  (-0.5226279E-04)
 number of electron       2.0000011 magnetization 
 augmentation part        0.0417163 magnetization 

 Free energy of the ion-electron system (eV)
  ---------------------------------------------------
  alpha Z        PSCENC =         0.00121808
  Ewald energy   TEWEN  =        15.16389402
  -Hartree energ DENC   =       -31.56077267
  -exchange      EXHF   =         0.00000000
  -V(xc)+E(xc)   XCENC  =         5.19116709
  PAW double counting   =        24.34305479      -24.39631463
  entropy T*S    EENTRO =        -0.00000000
  eigenvalues    EBANDS =       -20.78781928
  atomic energy  EATOM  =        25.06705842
  ---------------------------------------------------
  free energy    TOTEN  =        -6.97851418 eV

  energy without entropy =       -6.97851418  energy(sigma->0) =       -6.97851418


--------------------------------------------------------------------------------------------------------




--------------------------------------- Iteration      1(  13)  ---------------------------------------


    POTLOK:  cpu time      0.1361: real time      0.1376
    SETDIJ:  cpu time      0.0670: real time      0.0673
    TRIAL :  cpu time      0.1214: real time      0.1239
    CORREC:  cpu time      0.2236: real time      0.2271
    CHARGE:  cpu time      0.0268: real time      0.0271
    --------------------------------------------
      LOOP:  cpu time      0.5756: real time      0.5838

 eigenvalue-minimisations  :     0
 total energy-change (2. order) :-0.5244908E-04  (-0.2184267E-04)
 number of electron       2.0000011 magnetization 
 augmentation part        0.0416998 magnetization 

 Free energy of the ion-electron system (eV)
  ---------------------------------------------------
  alpha Z        PSCENC =         0.00121808
  Ewald energy   TEWEN  =        15.16389402
  -Hartree energ DENC   =       -31.57095384
  -exchange      EXHF   =         0.00000000
  -V(xc)+E(xc)   XCENC  =         5.19257477
  PAW double counting   =        24.38193109      -24.43522818
  entropy T*S    EENTRO =        -0.00000000
  eigenvalues    EBANDS =       -20.77906100
  atomic energy  EATOM  =        25.06705842
  ---------------------------------------------------
  free energy    TOTEN  =        -6.97856663 eV

  energy without entropy =       -6.97856663  energy(sigma->0) =       -6.97856663


--------------------------------------------------------------------------------------------------------




--------------------------------------- Iteration      1(  14)  ---------------------------------------


    POTLOK:  cpu time      0.1203: real time      0.1217
    SETDIJ:  cpu time      0.0502: real time      0.0506
    TRIAL :  cpu time      0.0923: real time      0.0942
    CORREC:  cpu time      0.2214: real time      0.2247
    CHARGE:  cpu time      0.0266: real time      0.0269
    --------------------------------------------
      LOOP:  cpu time      0.5115: real time      0.5189

 eigenvalue-minimisations  :     0
 total energy-change (2. order) :-0.2188434E-04  (-0.6675071E-05)
 number of electron       2.0000011 magnetization 
 augmentation part        0.0416978 magnetization 

 Free energy of the ion-electron system (eV)
  ---------------------------------------------------
  alpha Z        PSCENC =         0.00121808
  Ewald energy   TEWEN  =        15.16389402
  -Hartree energ DENC   =       -31.57329980
  -exchange      EXHF   =         0.00000000
  -V(xc)+E(xc)   XCENC  =         5.19305488
  PAW double counting   =        24.39875348      -24.45202609
  entropy T*S    EENTRO =        -0.00000000
  eigenvalues    EBANDS =       -20.77724151
  atomic energy  EATOM  =        25.06705842
  ---------------------------------------------------
  free energy    TOTEN  =        -6.97858851 eV

  energy without entropy =       -6.97858851  energy(sigma->0) =       -6.97858851


--------------------------------------------------------------------------------------------------------




--------------------------------------- Iteration      1(  15)  ---------------------------------------


    POTLOK:  cpu time      0.1202: real time      0.1217
    SETDIJ:  cpu time      0.0505: real time      0.0507
    TRIAL :  cpu time      0.0938: real time      0.0955
    CORREC:  cpu time      0.2206: real time      0.2239
    CHARGE:  cpu time      0.0268: real time      0.0271
    --------------------------------------------
      LOOP:  cpu time      0.5126: real time      0.5195

 eigenvalue-minimisations  :     0
 total energy-change (2. order) :-0.6668223E-05  (-0.1630891E-05)
 number of electron       2.0000011 magnetization 
 augmentation part        0.0417041 magnetization 

 Free energy of the ion-electron system (eV)
  ---------------------------------------------------
  alpha Z        PSCENC =         0.00121808
  Ewald energy   TEWEN  =        15.16389402
  -Hartree energ DENC   =       -31.57392636
  -exchange      EXHF   =         0.00000000
  -V(xc)+E(xc)   XCENC  =         5.19321181
  PAW double counting   =        24.39780221      -24.45105703
  entropy T*S    EENTRO =        -0.00000000
  eigenvalues    EBANDS =       -20.77679634
  atomic energy  EATOM  =        25.06705842
  ---------------------------------------------------
  free energy    TOTEN  =        -6.97859518 eV

  energy without entropy =       -6.97859518  energy(sigma->0) =       -6.97859518


--------------------------------------------------------------------------------------------------------




--------------------------------------- Iteration      1(  16)  ---------------------------------------


    POTLOK:  cpu time      0.1196: real time      0.1211
    SETDIJ:  cpu time      0.0504: real time      0.0505
    TRIAL :  cpu time      0.0924: real time      0.0942
    CORREC:  cpu time      0.2268: real time      0.2303
    CHARGE:  cpu time      0.0265: real time      0.0268
    --------------------------------------------
      LOOP:  cpu time      0.5165: real time      0.5237

 eigenvalue-minimisations  :     0
 total energy-change (2. order) :-0.1625482E-05  (-0.4508075E-06)
 number of electron       2.0000011 magnetization 
 augmentation part        0.0417070 magnetization 

 Free energy of the ion-electron system (eV)
  ---------------------------------------------------
  alpha Z        PSCENC =         0.00121808
  Ewald energy   TEWEN  =        15.16389402
  -Hartree energ DENC   =       -31.57553765
  -exchange      EXHF   =         0.00000000
  -V(xc)+E(xc)   XCENC  =         5.19345071
  PAW double counting   =        24.39431209      -24.44756785
  entropy T*S    EENTRO =        -0.00000000
  eigenvalues    EBANDS =       -20.77542463
  atomic energy  EATOM  =        25.06705842
  ---------------------------------------------------
  free energy    TOTEN  =        -6.97859681 eV

  energy without entropy =       -6.97859681  energy(sigma->0) =       -6.97859681


--------------------------------------------------------------------------------------------------------




--------------------------------------- Iteration      1(  17)  ---------------------------------------


    POTLOK:  cpu time      0.1200: real time      0.1215
    SETDIJ:  cpu time      0.0503: real time      0.0505
    TRIAL :  cpu time      0.0921: real time      0.0940
    CORREC:  cpu time      0.2245: real time      0.2278
    EDDIAG:  cpu time      0.0351: real time      0.0357
    CHARGE:  cpu time      0.0258: real time      0.0260
    --------------------------------------------
      LOOP:  cpu time      0.5485: real time      0.5563

 eigenvalue-minimisations  :     0
 total energy-change (2. order) :-0.4479848E-06  (-0.1590907E-06)
 number of electron       2.0000011 magnetization 
 augmentation part        0.0417070 magnetization 

 Free energy of the ion-electron system (eV)
  ---------------------------------------------------
  alpha Z        PSCENC =         0.00121808
  Ewald energy   TEWEN  =        15.16389402
  -Hartree energ DENC   =       -31.57525176
  -exchange      EXHF   =         0.00000000
  -V(xc)+E(xc)   XCENC  =         5.19339994
  PAW double counting   =        24.38952203      -24.44277660
  entropy T*S    EENTRO =        -0.00000000
  eigenvalues    EBANDS =       -20.77566139
  atomic energy  EATOM  =        25.06705842
  ---------------------------------------------------
  free energy    TOTEN  =        -6.97859725 eV

  energy without entropy =       -6.97859725  energy(sigma->0) =       -6.97859725


--------------------------------------------------------------------------------------------------------


  average scaling for gradient   1.4762


 average (electrostatic) potential at core
  the test charge radii are     0.5201
  (the norm of the test charge is              1.0000)
       1 -41.7943       2 -41.7943



 E-fermi :  -9.9032     XC(G=0):  -0.0640     alpha+bet : -0.0069

 val. band max:      -10.3880441814   @ k =   0.0000   0.0000   0.0000
 cond. band min:      -0.0575115589   @ k =   0.0000   0.0000   0.0000
 fundamental gap:     10.3305326225
 Fermi energy:        -9.9031971949

 k-point     1 :       0.0000    0.0000    0.0000
  band No.  band energies     occupation 
      1     -10.3880      2.00000
      2      -0.0575      0.00000
      3       0.1134      0.00000
      4       0.2359      0.00000
      5       0.3131      0.00000
      6       0.3131      0.00000
      7       0.3568      0.00000
      8       0.3590      0.00000
      9       0.4481      0.00000
     10       0.6090      0.00000
     11       0.6090      0.00000
     12       0.6349      0.00000
     13       0.7290      0.00000
     14       0.7329      0.00000
     15       0.7330      0.00000
     16       0.7340      0.00000


--------------------------------------------------------------------------------------------------------


 soft charge-density along one line, spin component           1
         0         1         2         3         4         5         6         7         8         9
 total charge-density along one line

 pseudopotential strength for first ion, spin component:           1
 -2.344  -4.040   0.000   0.000  -0.009
 -4.040  -6.877   0.000   0.000  -0.019
  0.000   0.000  -0.343   0.000  -0.000
  0.000   0.000   0.000  -0.343  -0.000
 -0.009  -0.019  -0.000  -0.000  -0.321
 total augmentation occupancy for first ion, spin component:           1
  3.111  -0.483  -0.000  -0.000   0.379
 -0.483   0.075   0.000   0.000  -0.059
 -0.000   0.000   0.000   0.000  -0.000
 -0.000   0.000   0.000   0.000  -0.000
  0.379  -0.059  -0.000  -0.000   0.046


------------------------ aborting loop because EDIFF is reached ----------------------------------------


    FORLOC:  cpu time      0.0023: real time      0.0023
    FORNL :  cpu time      0.0343: real time      0.0353
    STRESS:  cpu time      0.0998: real time      0.1015
    OFIELD:  cpu time      0.0016: real time      0.0017

 ---------------------------------------------------------------------------------------------

         DFTD3 V3.0 Rev 1        
 DF rpbe      
 parameters
 rs18     =    1.0000
 alpha6   =   14.0000
 alpha8   =   16.0000
 k1-k3    =   16.0000    1.3333   -4.0000
 Edisp (eV)   -0.00000

 E6    (eV) :    -0.0000
 E8    (eV) :    -0.0000
 % E8        :  4.58
    FORVDW:  cpu time      0.0130: real time      0.0140

  FORCE on cell =-STRESS in cart. coord.  units (eV):
  Direction    XX          YY          ZZ          XY          YZ          ZX
  --------------------------------------------------------------------------------------
  Alpha Z     0.00122     0.00122     0.00122
  Ewald      17.88983    -1.36296    -1.36296     0.00000     0.00000     0.00000
  Hartree    12.02845     9.77298     9.77298    -0.00000    -0.00000    -0.00000
  E(xc)      -5.83731    -6.13501    -6.13501    -0.00000    -0.00000     0.00000
  Local     -31.91071   -18.27968   -18.27968     0.00000     0.00000    -0.00000
  n-local    -6.41026    -5.44395    -5.44395     0.00000     0.00000    -0.00000
  augment     0.20265     0.27158     0.27158     0.00000    -0.00000    -0.00000
  Kinetic    13.85757    21.05535    21.05535     0.00000     0.00000     0.00000
  Fock        0.00000     0.00000     0.00000     0.00000     0.00000     0.00000
  vdW         0.00003    -0.00000    -0.00000     0.00000     0.00000     0.00000
  -------------------------------------------------------------------------------------
  Total      -0.17852    -0.12048    -0.12048     0.00000     0.00000     0.00000
  in kB      -0.03575    -0.02413    -0.02413     0.00000     0.00000     0.00000
  external pressure =       -0.03 kB  Pullay stress =        0.00 kB


 VOLUME and BASIS-vectors are now :
 -----------------------------------------------------------------------------
  energy-cutoff  :      400.00
  volume of cell :     8000.00
      direct lattice vectors                 reciprocal lattice vectors
    20.000000000  0.000000000  0.000000000     0.050000000  0.000000000  0.000000000
     0.000000000 20.000000000  0.000000000     0.000000000  0.050000000  0.000000000
     0.000000000  0.000000000 20.000000000     0.000000000  0.000000000  0.050000000

  length of vectors
    20.000000000 20.000000000 20.000000000     0.050000000  0.050000000  0.050000000


 FORCES acting on ions:
    Electron-Ion                     Ewald-Force                    Non-Local-Force
 -----------------------------------------------------------------------------------------------
   0.207E+02 -.389E-08 -.464E-07   -.257E+02 -.226E-08 -.353E-07   0.509E+01 -.731E-08 -.391E-09
   -.207E+02 -.103E-07 0.222E-07   0.257E+02 0.226E-08 0.353E-07   -.509E+01 0.208E-09 -.115E-07
 -----------------------------------------------------------------------------------------------
   0.629E-08 -.142E-07 -.242E-07   0.000E+00 -.168E-18 0.315E-18   0.161E-08 -.710E-08 -.119E-07


 POSITION                                       TOTAL-FORCE (eV/Angst)
 -----------------------------------------------------------------------------------
      9.62593     10.00000     10.00000         0.029310     -0.000000     -0.000000
     10.37407     10.00000     10.00000        -0.029310      0.000000      0.000000
 -----------------------------------------------------------------------------------
    total drift:                                0.000000     -0.000000     -0.000000


--------------------------------------------------------------------------------------------------------



  FREE ENERGIE OF THE ION-ELECTRON SYSTEM (eV)
  ---------------------------------------------------
  free  energy   TOTEN  =        -6.97860172 eV

  energy  without entropy=       -6.97860172  energy(sigma->0) =       -6.97860172



--------------------------------------------------------------------------------------------------------


    POTLOK:  cpu time      0.1768: real time      0.1788


--------------------------------------------------------------------------------------------------------




--------------------------------------------------------------------------------------------------------


    WAVPRE:  cpu time      0.0078: real time      0.0126
    FEWALD:  cpu time      0.0003: real time      0.0003

 real space projection operators:
  total allocation   :         75.94 KBytes
  max/ min on nodes  :         20.23         17.11

    ORTHCH:  cpu time      0.0172: real time      0.0175
    POTLOK:  cpu time      0.1698: real time      0.1726
    EDDIAG:  cpu time      0.0358: real time      0.0363
    CHARGE:  cpu time      0.0255: real time      0.0260
     LOOP+:  cpu time      8.1744: real time      8.3043


--------------------------------------- Ionic step        2  -------------------------------------------




--------------------------------------- Iteration      2(   1)  ---------------------------------------


    POTLOK:  cpu time      0.1198: real time      0.1219
    SETDIJ:  cpu time      0.0502: real time      0.0505
    TRIAL :  cpu time      0.0920: real time      0.0936
    CORREC:  cpu time      0.2215: real time      0.2251
    CHARGE:  cpu time      0.0262: real time      0.0266
    --------------------------------------------
      LOOP:  cpu time      0.5119: real time      0.5199

 eigenvalue-minimisations  :     0
 total energy-change (2. order) : 0.2782088E-03  (-0.1816305E-03)
 number of electron       2.0000010 magnetization 
 augmentation part        0.0419020 magnetization 

 Free energy of the ion-electron system (eV)
  ---------------------------------------------------
  alpha Z        PSCENC =         0.00121808
  Ewald energy   TEWEN  =        15.23690900
  -Hartree energ DENC   =       -31.58429898
  -exchange      EXHF   =         0.00000000
  -V(xc)+E(xc)   XCENC  =         5.19461558
  PAW double counting   =        24.45094629      -24.50432077
  entropy T*S    EENTRO =        -0.00000000
  eigenvalues    EBANDS =       -20.84044623
  atomic energy  EATOM  =        25.06705842
  ---------------------------------------------------
  free energy    TOTEN  =        -6.97831860 eV

  energy without entropy =       -6.97831860  energy(sigma->0) =       -6.97831860


--------------------------------------------------------------------------------------------------------




--------------------------------------- Iteration      2(   2)  ---------------------------------------


    POTLOK:  cpu time      0.1285: real time      0.1307
    SETDIJ:  cpu time      0.0504: real time      0.0506
    TRIAL :  cpu time      0.0928: real time      0.0946
    CORREC:  cpu time      0.2206: real time      0.2240
    CHARGE:  cpu time      0.0265: real time      0.0268
    --------------------------------------------
      LOOP:  cpu time      0.5207: real time      0.5285

 eigenvalue-minimisations  :     0
 total energy-change (2. order) :-0.1816351E-03  (-0.4209769E-04)
 number of electron       2.0000010 magnetization 
 augmentation part        0.0418726 magnetization 

 Free energy of the ion-electron system (eV)
  ---------------------------------------------------
  alpha Z        PSCENC =         0.00121808
  Ewald energy   TEWEN  =        15.23690900
  -Hartree energ DENC   =       -31.64102756
  -exchange      EXHF   =         0.00000000
  -V(xc)+E(xc)   XCENC  =         5.20238199
  PAW double counting   =        24.57166016      -24.62536015
  entropy T*S    EENTRO =        -0.00000000
  eigenvalues    EBANDS =       -20.79134018
  atomic energy  EATOM  =        25.06705842
  ---------------------------------------------------
  free energy    TOTEN  =        -6.97850023 eV

  energy without entropy =       -6.97850023  energy(sigma->0) =       -6.97850023


--------------------------------------------------------------------------------------------------------




--------------------------------------- Iteration      2(   3)  ---------------------------------------


    POTLOK:  cpu time      0.1189: real time      0.1209
    SETDIJ:  cpu time      0.0504: real time      0.0506
    TRIAL :  cpu time      0.0922: real time      0.0938
    CORREC:  cpu time      0.2211: real time      0.2248
    CHARGE:  cpu time      0.0265: real time      0.0268
    --------------------------------------------
      LOOP:  cpu time      0.5100: real time      0.5176

 eigenvalue-minimisations  :     0
 total energy-change (2. order) :-0.4210354E-04  (-0.3335462E-05)
 number of electron       2.0000010 magnetization 
 augmentation part        0.0418626 magnetization 

 Free energy of the ion-electron system (eV)
  ---------------------------------------------------
  alpha Z        PSCENC =         0.00121808
  Ewald energy   TEWEN  =        15.23690900
  -Hartree energ DENC   =       -31.62894962
  -exchange      EXHF   =         0.00000000
  -V(xc)+E(xc)   XCENC  =         5.20028030
  PAW double counting   =        24.58235290      -24.63605315
  entropy T*S    EENTRO =        -0.00000000
  eigenvalues    EBANDS =       -20.80135828
  atomic energy  EATOM  =        25.06705842
  ---------------------------------------------------
  free energy    TOTEN  =        -6.97854234 eV

  energy without entropy =       -6.97854234  energy(sigma->0) =       -6.97854234


--------------------------------------------------------------------------------------------------------




--------------------------------------- Iteration      2(   4)  ---------------------------------------


    POTLOK:  cpu time      0.1293: real time      0.1308
    SETDIJ:  cpu time      0.0503: real time      0.0505
    TRIAL :  cpu time      0.0918: real time      0.0939
    CORREC:  cpu time      0.2194: real time      0.2230
    CHARGE:  cpu time      0.0264: real time      0.0268
    --------------------------------------------
      LOOP:  cpu time      0.5178: real time      0.5267

 eigenvalue-minimisations  :     0
 total energy-change (2. order) :-0.3335073E-05  (-0.4598300E-06)
 number of electron       2.0000010 magnetization 
 augmentation part        0.0418598 magnetization 

 Free energy of the ion-electron system (eV)
  ---------------------------------------------------
  alpha Z        PSCENC =         0.00121808
  Ewald energy   TEWEN  =        15.23690900
  -Hartree energ DENC   =       -31.62715944
  -exchange      EXHF   =         0.00000000
  -V(xc)+E(xc)   XCENC  =         5.20001905
  PAW double counting   =        24.58783475      -24.64152682
  entropy T*S    EENTRO =        -0.00000000
  eigenvalues    EBANDS =       -20.80289872
  atomic energy  EATOM  =        25.06705842
  ---------------------------------------------------
  free energy    TOTEN  =        -6.97854567 eV

  energy without entropy =       -6.97854567  energy(sigma->0) =       -6.97854567


--------------------------------------------------------------------------------------------------------




--------------------------------------- Iteration      2(   5)  ---------------------------------------


    POTLOK:  cpu time      0.1233: real time      0.1246
    SETDIJ:  cpu time      0.0502: real time      0.0505
    TRIAL :  cpu time      0.0916: real time      0.0938
    CORREC:  cpu time      0.2250: real time      0.2288
    EDDIAG:  cpu time      0.0335: real time      0.0348
    CHARGE:  cpu time      0.0257: real time      0.0259
    --------------------------------------------
      LOOP:  cpu time      0.5501: real time      0.5593

 eigenvalue-minimisations  :     0
 total energy-change (2. order) :-0.4600703E-06  (-0.8776706E-07)
 number of electron       2.0000010 magnetization 
 augmentation part        0.0418592 magnetization 

 Free energy of the ion-electron system (eV)
  ---------------------------------------------------
  alpha Z        PSCENC =         0.00121808
  Ewald energy   TEWEN  =        15.23690900
  -Hartree energ DENC   =       -31.62686684
  -exchange      EXHF   =         0.00000000
  -V(xc)+E(xc)   XCENC  =         5.19999812
  PAW double counting   =        24.59032584      -24.64401591
  entropy T*S    EENTRO =        -0.00000000
  eigenvalues    EBANDS =       -20.80317286
  atomic energy  EATOM  =        25.06705842
  ---------------------------------------------------
  free energy    TOTEN  =        -6.97854613 eV

  energy without entropy =       -6.97854613  energy(sigma->0) =       -6.97854613


--------------------------------------------------------------------------------------------------------


  average scaling for gradient   1.3592


 average (electrostatic) potential at core
  the test charge radii are     0.5201
  (the norm of the test charge is              1.0000)
       1 -41.8119       2 -41.8119



 E-fermi :  -9.9149     XC(G=0):  -0.0640     alpha+bet : -0.0069

 val. band max:      -10.4016877957   @ k =   0.0000   0.0000   0.0000
 cond. band min:      -0.0574519081   @ k =   0.0000   0.0000   0.0000
 fundamental gap:     10.3442358875
 Fermi energy:        -9.9148959206

 k-point     1 :       0.0000    0.0000    0.0000
  band No.  band energies     occupation 
      1     -10.4017      2.00000
      2      -0.0575      0.00000
      3       0.1164      0.00000
      4       0.2359      0.00000
      5       0.3131      0.00000
      6       0.3131      0.00000
      7       0.3568      0.00000
      8       0.3590      0.00000
      9       0.4457      0.00000
     10       0.6022      0.00000
     11       0.6022      0.00000
     12       0.6339      0.00000
     13       0.7290      0.00000
     14       0.7329      0.00000
     15       0.7329      0.00000
     16       0.7337      0.00000


--------------------------------------------------------------------------------------------------------


 soft charge-density along one line, spin component           1
         0         1         2         3         4         5         6         7         8         9
 total charge-density along one line

 pseudopotential strength for first ion, spin component:           1
 -2.344  -4.040  -0.000  -0.000  -0.009
 -4.040  -6.877  -0.000  -0.000  -0.019
 -0.000  -0.000  -0.343   0.000   0.000
 -0.000  -0.000   0.000  -0.343   0.000
 -0.009  -0.019   0.000   0.000  -0.320
 total augmentation occupancy for first ion, spin component:           1
  3.117  -0.483   0.000   0.000   0.382
 -0.483   0.075  -0.000  -0.000  -0.059
  0.000  -0.000   0.000   0.000   0.000
  0.000  -0.000   0.000   0.000   0.000
  0.382  -0.059   0.000   0.000   0.047


------------------------ aborting loop because EDIFF is reached ----------------------------------------


    FORLOC:  cpu time      0.0020: real time      0.0020
    FORNL :  cpu time      0.0341: real time      0.0346
    STRESS:  cpu time      0.1000: real time      0.1015
    OFIELD:  cpu time      0.0018: real time      0.0019

 ---------------------------------------------------------------------------------------------

         DFTD3 V3.0 Rev 1        
 Edisp (eV)   -0.00000

 E6    (eV) :    -0.0000
 E8    (eV) :    -0.0000
 % E8        :  4.57
    FORVDW:  cpu time      0.0075: real time      0.0076

  FORCE on cell =-STRESS in cart. coord.  units (eV):
  Direction    XX          YY          ZZ          XY          YZ          ZX
  --------------------------------------------------------------------------------------
  Alpha Z     0.00122     0.00122     0.00122
  Ewald      17.96283    -1.36296    -1.36296     0.00000     0.00000     0.00000
  Hartree    12.04034     9.79311     9.79311     0.00000    -0.00000     0.00000
  E(xc)      -5.84555    -6.14278    -6.14278     0.00000    -0.00000     0.00000
  Local     -31.93392   -18.31506   -18.31506    -0.00000     0.00000    -0.00000
  n-local    -6.43734    -5.46115    -5.46115    -0.00000     0.00000    -0.00000
  augment     0.20256     0.27275     0.27275    -0.00000    -0.00000    -0.00000
  Kinetic    13.90412    21.09421    21.09421    -0.00000     0.00000    -0.00000
  Fock        0.00000     0.00000     0.00000     0.00000     0.00000     0.00000
  vdW         0.00003    -0.00000    -0.00000     0.00000     0.00000     0.00000
  -------------------------------------------------------------------------------------
  Total      -0.10571    -0.12067    -0.12067     0.00000     0.00000     0.00000
  in kB      -0.02117    -0.02417    -0.02417     0.00000     0.00000     0.00000
  external pressure =       -0.02 kB  Pullay stress =        0.00 kB


 VOLUME and BASIS-vectors are now :
 -----------------------------------------------------------------------------
  energy-cutoff  :      400.00
  volume of cell :     8000.00
      direct lattice vectors                 reciprocal lattice vectors
    20.000000000  0.000000000  0.000000000     0.050000000  0.000000000  0.000000000
     0.000000000 20.000000000  0.000000000     0.000000000  0.050000000  0.000000000
     0.000000000  0.000000000 20.000000000     0.000000000  0.000000000  0.050000000

  length of vectors
    20.000000000 20.000000000 20.000000000     0.050000000  0.050000000  0.050000000


 FORCES acting on ions:
    Electron-Ion                     Ewald-Force                    Non-Local-Force
 -----------------------------------------------------------------------------------------------
   0.207E+02 0.107E-07 0.142E-06   -.259E+02 -.117E-07 -.250E-06   0.513E+01 0.260E-08 0.499E-07
   -.207E+02 -.893E-08 -.139E-06   0.259E+02 0.117E-07 0.250E-06   -.513E+01 -.224E-08 -.494E-07
 -----------------------------------------------------------------------------------------------
   0.105E-07 0.176E-08 0.351E-08   0.000E+00 -.167E-18 0.315E-18   0.157E-08 0.359E-09 0.559E-09


 POSITION                                       TOTAL-FORCE (eV/Angst)
 -----------------------------------------------------------------------------------
      9.62734     10.00000     10.00000        -0.066926      0.000000     -0.000000
     10.37266     10.00000     10.00000         0.066926     -0.000000      0.000000
 -----------------------------------------------------------------------------------
    total drift:                                0.000000      0.000000      0.000000


--------------------------------------------------------------------------------------------------------



  FREE ENERGIE OF THE ION-ELECTRON SYSTEM (eV)
  ---------------------------------------------------
  free  energy   TOTEN  =        -6.97855047 eV

  energy  without entropy=       -6.97855047  energy(sigma->0) =       -6.97855047

 d Force =-0.5318914E-04[-0.189E-03, 0.829E-04]  d Energy =-0.5124876E-04-0.194E-05
 d Force =-0.7301549E-01[-0.733E-01,-0.727E-01]  d Ewald  =-0.7301498E-01-0.514E-06


--------------------------------------------------------------------------------------------------------


    POTLOK:  cpu time      0.1701: real time      0.1720


--------------------------------------------------------------------------------------------------------


 Steepest descent step on ions:
 trial-energy change:    0.000051  1 .order    0.000053   -0.000083    0.000189
  (g-gl).g = 0.829E-04      g.g   = 0.829E-04  gl.gl    = 0.000E+00
 g(Force)  = 0.829E-04   g(Stress)= 0.000E+00 ortho     = 0.000E+00
 gamma     =   0.00000
 trial     =   1.00000
 opt step  =   0.30456  (harmonic =   0.30456) maximal distance =0.00043064
 next E    =    -6.978614   (d E  =  -0.00001)


--------------------------------------------------------------------------------------------------------


    WAVPRE:  cpu time      0.0069: real time      0.0080
    FEWALD:  cpu time      0.0003: real time      0.0003

 real space projection operators:
  total allocation   :         75.94 KBytes
  max/ min on nodes  :         20.23         17.11

    ORTHCH:  cpu time      0.0168: real time      0.0181
    POTLOK:  cpu time      0.1681: real time      0.1715
    EDDIAG:  cpu time      0.0391: real time      0.0398
    CHARGE:  cpu time      0.0256: real time      0.0259
     LOOP+:  cpu time      3.2359: real time      3.2900


--------------------------------------- Ionic step        3  -------------------------------------------




--------------------------------------- Iteration      3(   1)  ---------------------------------------


    POTLOK:  cpu time      0.1201: real time      0.1214
    SETDIJ:  cpu time      0.0503: real time      0.0505
    TRIAL :  cpu time      0.0919: real time      0.0938
    CORREC:  cpu time      0.2268: real time      0.2300
    CHARGE:  cpu time      0.0265: real time      0.0269
    --------------------------------------------
      LOOP:  cpu time      0.5178: real time      0.5248

 eigenvalue-minimisations  :     0
 total energy-change (2. order) : 0.4248553E-04  (-0.8611400E-04)
 number of electron       2.0000011 magnetization 
 augmentation part        0.0417227 magnetization 

 Free energy of the ion-electron system (eV)
  ---------------------------------------------------
  alpha Z        PSCENC =         0.00121808
  Ewald energy   TEWEN  =        15.18607296
  -Hartree energ DENC   =       -31.61883227
  -exchange      EXHF   =         0.00000000
  -V(xc)+E(xc)   XCENC  =         5.19891533
  PAW double counting   =        24.54507530      -24.59867633
  entropy T*S    EENTRO =        -0.00000000
  eigenvalues    EBANDS =       -20.75933468
  atomic energy  EATOM  =        25.06705842
  ---------------------------------------------------
  free energy    TOTEN  =        -6.97850319 eV

  energy without entropy =       -6.97850319  energy(sigma->0) =       -6.97850319


--------------------------------------------------------------------------------------------------------




--------------------------------------- Iteration      3(   2)  ---------------------------------------


    POTLOK:  cpu time      0.1200: real time      0.1217
    SETDIJ:  cpu time      0.0503: real time      0.0505
    TRIAL :  cpu time      0.0922: real time      0.0942
    CORREC:  cpu time      0.2203: real time      0.2232
    CHARGE:  cpu time      0.0264: real time      0.0269
    --------------------------------------------
      LOOP:  cpu time      0.5101: real time      0.5173

 eigenvalue-minimisations  :     0
 total energy-change (2. order) :-0.8611261E-04  (-0.1995536E-04)
 number of electron       2.0000011 magnetization 
 augmentation part        0.0417434 magnetization 

 Free energy of the ion-electron system (eV)
  ---------------------------------------------------
  alpha Z        PSCENC =         0.00121808
  Ewald energy   TEWEN  =        15.18607296
  -Hartree energ DENC   =       -31.57975834
  -exchange      EXHF   =         0.00000000
  -V(xc)+E(xc)   XCENC  =         5.19356883
  PAW double counting   =        24.46154558      -24.51492241
  entropy T*S    EENTRO =        -0.00000000
  eigenvalues    EBANDS =       -20.79337243
  atomic energy  EATOM  =        25.06705842
  ---------------------------------------------------
  free energy    TOTEN  =        -6.97858930 eV

  energy without entropy =       -6.97858930  energy(sigma->0) =       -6.97858930


--------------------------------------------------------------------------------------------------------




--------------------------------------- Iteration      3(   3)  ---------------------------------------


    POTLOK:  cpu time      0.1191: real time      0.1205
    SETDIJ:  cpu time      0.0503: real time      0.0505
    TRIAL :  cpu time      0.0949: real time      0.0965
    CORREC:  cpu time      0.2203: real time      0.2232
    CHARGE:  cpu time      0.0261: real time      0.0267
    --------------------------------------------
      LOOP:  cpu time      0.5114: real time      0.5181

 eigenvalue-minimisations  :     0
 total energy-change (2. order) :-0.1995243E-04  (-0.1595551E-05)
 number of electron       2.0000011 magnetization 
 augmentation part        0.0417502 magnetization 

 Free energy of the ion-electron system (eV)
  ---------------------------------------------------
  alpha Z        PSCENC =         0.00121808
  Ewald energy   TEWEN  =        15.18607296
  -Hartree energ DENC   =       -31.58818772
  -exchange      EXHF   =         0.00000000
  -V(xc)+E(xc)   XCENC  =         5.19503382
  PAW double counting   =        24.45420792      -24.50758539
  entropy T*S    EENTRO =        -0.00000000
  eigenvalues    EBANDS =       -20.78642737
  atomic energy  EATOM  =        25.06705842
  ---------------------------------------------------
  free energy    TOTEN  =        -6.97860925 eV

  energy without entropy =       -6.97860925  energy(sigma->0) =       -6.97860925


--------------------------------------------------------------------------------------------------------




--------------------------------------- Iteration      3(   4)  ---------------------------------------


    POTLOK:  cpu time      0.1195: real time      0.1209
    SETDIJ:  cpu time      0.0503: real time      0.0505
    TRIAL :  cpu time      0.0922: real time      0.0938
    CORREC:  cpu time      0.2198: real time      0.2231
    CHARGE:  cpu time      0.0264: real time      0.0268
    --------------------------------------------
      LOOP:  cpu time      0.5091: real time      0.5159

 eigenvalue-minimisations  :     0
 total energy-change (2. order) :-0.1596039E-05  (-0.2261883E-06)
 number of electron       2.0000011 magnetization 
 augmentation part        0.0417522 magnetization 

 Free energy of the ion-electron system (eV)
  ---------------------------------------------------
  alpha Z        PSCENC =         0.00121808
  Ewald energy   TEWEN  =        15.18607296
  -Hartree energ DENC   =       -31.58937840
  -exchange      EXHF   =         0.00000000
  -V(xc)+E(xc)   XCENC  =         5.19520664
  PAW double counting   =        24.45038583      -24.50376891
  entropy T*S    EENTRO =        -0.00000000
  eigenvalues    EBANDS =       -20.78540548
  atomic energy  EATOM  =        25.06705842
  ---------------------------------------------------
  free energy    TOTEN  =        -6.97861085 eV

  energy without entropy =       -6.97861085  energy(sigma->0) =       -6.97861085


--------------------------------------------------------------------------------------------------------




--------------------------------------- Iteration      3(   5)  ---------------------------------------


    POTLOK:  cpu time      0.1192: real time      0.1205
    SETDIJ:  cpu time      0.0503: real time      0.0505
    TRIAL :  cpu time      0.0982: real time      0.1000
    CORREC:  cpu time      0.2179: real time      0.2224
    EDDIAG:  cpu time      0.0338: real time      0.0349
    CHARGE:  cpu time      0.0253: real time      0.0256
    --------------------------------------------
      LOOP:  cpu time      0.5454: real time      0.5548

 eigenvalue-minimisations  :     0
 total energy-change (2. order) :-0.2260771E-06  (-0.4412170E-07)
 number of electron       2.0000011 magnetization 
 augmentation part        0.0417526 magnetization 

 Free energy of the ion-electron system (eV)
  ---------------------------------------------------
  alpha Z        PSCENC =         0.00121808
  Ewald energy   TEWEN  =        15.18607296
  -Hartree energ DENC   =       -31.58960289
  -exchange      EXHF   =         0.00000000
  -V(xc)+E(xc)   XCENC  =         5.19522339
  PAW double counting   =        24.44870487      -24.50208953
  entropy T*S    EENTRO =        -0.00000000
  eigenvalues    EBANDS =       -20.78519638
  atomic energy  EATOM  =        25.06705842
  ---------------------------------------------------
  free energy    TOTEN  =        -6.97861107 eV

  energy without entropy =       -6.97861107  energy(sigma->0) =       -6.97861107


--------------------------------------------------------------------------------------------------------


  average scaling for gradient   1.4682


 average (electrostatic) potential at core
  the test charge radii are     0.5201
  (the norm of the test charge is              1.0000)
       1 -41.8001       2 -41.8001



 E-fermi :  -9.9033     XC(G=0):  -0.0641     alpha+bet : -0.0069

 val. band max:      -10.3925220074   @ k =   0.0000   0.0000   0.0000
 cond. band min:      -0.0576566115   @ k =   0.0000   0.0000   0.0000
 fundamental gap:     10.3348653958
 Fermi energy:        -9.9033398458

 k-point     1 :       0.0000    0.0000    0.0000
  band No.  band energies     occupation 
      1     -10.3925      2.00000
      2      -0.0577      0.00000
      3       0.1120      0.00000
      4       0.2356      0.00000
      5       0.3127      0.00000
      6       0.3127      0.00000
      7       0.3568      0.00000
      8       0.3590      0.00000
      9       0.4442      0.00000
     10       0.6012      0.00000
     11       0.6012      0.00000
     12       0.6338      0.00000
     13       0.7289      0.00000
     14       0.7328      0.00000
     15       0.7328      0.00000
     16       0.7336      0.00000


--------------------------------------------------------------------------------------------------------


 soft charge-density along one line, spin component           1
         0         1         2         3         4         5         6         7         8         9
 total charge-density along one line

 pseudopotential strength for first ion, spin component:           1
 -2.344  -4.040  -0.000  -0.000  -0.009
 -4.040  -6.877  -0.000  -0.000  -0.019
 -0.000  -0.000  -0.343  -0.000   0.000
 -0.000  -0.000  -0.000  -0.343   0.000
 -0.009  -0.019   0.000   0.000  -0.321
 total augmentation occupancy for first ion, spin component:           1
  3.113  -0.483   0.000   0.000   0.380
 -0.483   0.075  -0.000  -0.000  -0.059
  0.000  -0.000   0.000   0.000   0.000
  0.000  -0.000   0.000   0.000   0.000
  0.380  -0.059   0.000   0.000   0.046


------------------------ aborting loop because EDIFF is reached ----------------------------------------


    FORLOC:  cpu time      0.0020: real time      0.0020
    FORNL :  cpu time      0.0343: real time      0.0348
    STRESS:  cpu time      0.0992: real time      0.1004
    OFIELD:  cpu time      0.0018: real time      0.0018

 ---------------------------------------------------------------------------------------------

         DFTD3 V3.0 Rev 1        
 Edisp (eV)   -0.00000

 E6    (eV) :    -0.0000
 E8    (eV) :    -0.0000
 % E8        :  4.58
    FORVDW:  cpu time      0.0075: real time      0.0077

  FORCE on cell =-STRESS in cart. coord.  units (eV):
  Direction    XX          YY          ZZ          XY          YZ          ZX
  --------------------------------------------------------------------------------------
  Alpha Z     0.00122     0.00122     0.00122
  Ewald      17.91201    -1.36296    -1.36296     0.00000     0.00000     0.00000
  Hartree    12.03186     9.77899     9.77899     0.00000     0.00000     0.00000
  E(xc)      -5.83971    -6.13727    -6.13727     0.00000     0.00000     0.00000
  Local     -31.91757   -18.29031   -18.29031    -0.00000    -0.00000    -0.00000
  n-local    -6.41848    -5.44911    -5.44911    -0.00000    -0.00000    -0.00000
  augment     0.20262     0.27193     0.27193     0.00000     0.00000    -0.00000
  Kinetic    13.87148    21.06682    21.06682    -0.00000    -0.00000    -0.00000
  Fock        0.00000     0.00000     0.00000     0.00000     0.00000     0.00000
  vdW         0.00003    -0.00000    -0.00000     0.00000     0.00000     0.00000
  -------------------------------------------------------------------------------------
  Total      -0.15654    -0.12069    -0.12069    -0.00000    -0.00000    -0.00000
  in kB      -0.03135    -0.02417    -0.02417    -0.00000    -0.00000    -0.00000
  external pressure =       -0.03 kB  Pullay stress =        0.00 kB


 VOLUME and BASIS-vectors are now :
 -----------------------------------------------------------------------------
  energy-cutoff  :      400.00
  volume of cell :     8000.00
      direct lattice vectors                 reciprocal lattice vectors
    20.000000000  0.000000000  0.000000000     0.050000000  0.000000000  0.000000000
     0.000000000 20.000000000  0.000000000     0.000000000  0.050000000  0.000000000
     0.000000000  0.000000000 20.000000000     0.000000000  0.000000000  0.050000000

  length of vectors
    20.000000000 20.000000000 20.000000000     0.050000000  0.050000000  0.050000000


 FORCES acting on ions:
    Electron-Ion                     Ewald-Force                    Non-Local-Force
 -----------------------------------------------------------------------------------------------
   0.207E+02 0.399E-08 0.168E-07   -.258E+02 -.510E-08 -.100E-06   0.510E+01 0.907E-09 0.198E-07
   -.207E+02 -.386E-08 -.180E-07   0.258E+02 0.510E-08 0.100E-06   -.510E+01 -.107E-08 -.202E-07
 -----------------------------------------------------------------------------------------------
   -.550E-08 0.131E-09 -.120E-08   0.000E+00 -.166E-18 0.315E-18   -.104E-08 -.164E-09 -.368E-09


 POSITION                                       TOTAL-FORCE (eV/Angst)
 -----------------------------------------------------------------------------------
      9.62636     10.00000     10.00000         0.000757     -0.000000     -0.000000
     10.37364     10.00000     10.00000        -0.000757      0.000000      0.000000
 -----------------------------------------------------------------------------------
    total drift:                               -0.000000     -0.000000     -0.000000


--------------------------------------------------------------------------------------------------------



  FREE ENERGIE OF THE ION-ELECTRON SYSTEM (eV)
  ---------------------------------------------------
  free  energy   TOTEN  =        -6.97861550 eV

  energy  without entropy=       -6.97861550  energy(sigma->0) =       -6.97861550

 d Force = 0.6506653E-04[-0.149E-05, 0.132E-03]  d Energy = 0.6502856E-04 0.380E-07
 d Force = 0.5083621E-01[ 0.507E-01, 0.510E-01]  d Ewald  = 0.5083604E-01 0.173E-06


--------------------------------------------------------------------------------------------------------


    POTLOK:  cpu time      0.1704: real time      0.1720


--------------------------------------------------------------------------------------------------------




--------------------------------------------------------------------------------------------------------


  
 reached required accuracy - stopping structural energy minimisation
     LOOP+:  cpu time      2.9629: real time      3.0069
    4ORBIT:  cpu time      0.0000: real time      0.0000

 total amount of memory used by VASP MPI-rank0    61173. kBytes
=======================================================================

   base      :      30000. kBytes
   nonlr-proj:         57. kBytes
   fftplans  :      12303. kBytes
   grid      :      17069. kBytes
   one-center:          1. kBytes
   wavefun   :       1743. kBytes

  
  
 General timing and accounting informations for this job:
 ========================================================
  
                  Total CPU time used (sec):       16.401
                            User time (sec):       15.092
                          System time (sec):        1.309
                         Elapsed time (sec):       19.685
  
                   Maximum memory used (kb):      296992.
                   Average memory used (kb):          N/A
  
                          Minor page faults:        82717
                          Major page faults:            2
                 Voluntary context switches:        28287
